 DBCSR| CPU Multiplication driver                                           XSMM (U)
 DBCSR| Multrec recursion limit                                              512 (U)
 DBCSR| Multiplication stack size                                           1000 (D)
 DBCSR| Maximum elements for images                                    UNLIMITED (U)
 DBCSR| Multiplicative factor virtual images                                   1 (U)
 DBCSR| Use multiplication densification                                       T (D)
 DBCSR| Multiplication size stacks                                             3 (U)
 DBCSR| Use memory pool for CPU allocation                                     F (U)
 DBCSR| Number of 3D layers                                               SINGLE (U)
 DBCSR| Use MPI memory allocation                                              F (U)
 DBCSR| Use RMA algorithm                                                      F (U)
 DBCSR| Use Communication thread                                               T (U)
 DBCSR| Communication thread load                                             87 (D)
 DBCSR| MPI: My process id                                                     0
 DBCSR| MPI: Number of processes                                               1
 DBCSR| OMP: Current number of threads                                         1
 DBCSR| OMP: Max number of threads                                             1
 DBCSR| Split modifier for TAS multiplication algorithm                  1.0E+00 (U)


  **** **** ******  **  PROGRAM STARTED AT               2026-05-30 14:51:05.228
 ***** ** ***  *** **   PROGRAM STARTED ON                            spark-c86c
 **    ****   ******    PROGRAM STARTED BY                              kuehne88
 ***** **    ** ** **   PROGRAM PROCESS ID                                140768
  **** **  *******  **  PROGRAM STARTED IN /home/kuehne88/molecular-skala-final-
                                           20260530-prhead/skala-molopt-bench/ru
                                           ns/H2O_GAPW_AE_gauxc_pbe_base

 CP2K| version string:                 CP2K version 2026.1 (Development Version)
 CP2K| source code revision number:                                   362771334d
 CP2K| cp2kflags: omp libint fftw3 libxc gauxc gauxc_mpi gauxc_onedft gauxc_host
 CP2K|             gauxc_device gauxc_cuda parallel scalapack xsmm spglib libtor
 CP2K|            rch
 CP2K| is freely available from                            https://www.cp2k.org/
 CP2K| Program compiled at                                   2026-05-29 22:13:32
 CP2K| Program compiled on                                            spark-c86c
 CP2K| Program compiled for                                              aarch64
 CP2K| Data directory path        /home/kuehne88/cp2k-periodic-skala-verify/data
 CP2K| Input file name                                                 input.inp

 GLOBAL| Force Environment number                                              1
 GLOBAL| Basis set file name                                    BASIS_MOLOPT_UZH
 GLOBAL| Potential file name                                       POTENTIAL_UZH
 GLOBAL| MM Potential file name                                     MM_POTENTIAL
 GLOBAL| Coordinate file name                                      __STD_INPUT__
 GLOBAL| Method name                                                        CP2K
 GLOBAL| Project name                                      H2O_GAPW_AE_gauxc_pbe
 GLOBAL| Run type                                                   ENERGY_FORCE
 GLOBAL| FFT library                                                       FFTW3
 GLOBAL| Diagonalization library                                       ScaLAPACK
 GLOBAL| Cholesky decomposition library                                ScaLAPACK
 GLOBAL| DGEMM library                                                      BLAS
 GLOBAL| Direct generalized diagonalization requested                          F
 GLOBAL| Orthonormality check for eigenvectors                          DISABLED
 GLOBAL| Matrix multiplication library                                 ScaLAPACK
 GLOBAL| All-to-all communication in single precision                          F
 GLOBAL| FFTs using library dependent lengths                                  F
 GLOBAL| Grid backend                                                       AUTO
 GLOBAL| Global print level                                                  LOW
 GLOBAL| MPI I/O enabled                                                       T
 GLOBAL| Total number of message passing processes                             1
 GLOBAL| Number of distributed systems (nodes)                                 1
 GLOBAL| Number of threads for this process                                    1
 GLOBAL| This output is from process                                           0
 GLOBAL| OpenMP stack size per thread (OMP_STACKSIZE)                       512M
 GLOBAL| CPU model name                                                  UNKNOWN
 GLOBAL| CPUID                                                              2200
 GLOBAL| Compiled for CPUID                                                 2000

 *** HINT in environment.F:970 :: The compiler target flags (arm_arch64)   ***
 *** used to build this binary cannot exploit all extensions of this CPU   ***
 *** model (arm_sve256). Consider compiler target flags as part of FCFLAGS ***
 *** and CFLAGS (ARCH file).                                               ***


 MEMORY| system memory details [Kb]
 MEMORY|                        rank 0           min           max       average
 MEMORY| MemTotal            125508532     125508532     125508532     125508532
 MEMORY| MemFree              43570560      43570560      43570560      43570560
 MEMORY| Buffers               1406080       1406080       1406080       1406080
 MEMORY| Cached               64472788      64472788      64472788      64472788
 MEMORY| Slab                  3538096       3538096       3538096       3538096
 MEMORY| SReclaimable          2678460       2678460       2678460       2678460
 MEMORY| MemLikelyFree       112127888     112127888     112127888     112127888


 GENERATE|  Preliminary Number of Bonds generated:                             0
 GENERATE|  Achieved consistency in connectivity generation.

 *******************************************************************************
 *******************************************************************************
 **                                                                           **
 **     #####                         ##              ##                      **
 **    ##   ##            ##          ##              ##                      **
 **   ##     ##                       ##            ######                    **
 **   ##     ##  ##   ##  ##   #####  ##  ##   ####   ##    #####    #####    **
 **   ##     ##  ##   ##  ##  ##      ## ##   ##      ##   ##   ##  ##   ##   **
 **   ##  ## ##  ##   ##  ##  ##      ####     ###    ##   ######   ######    **
 **    ##  ###   ##   ##  ##  ##      ## ##      ##   ##   ##       ##        **
 **     #######   #####   ##   #####  ##  ##  ####    ##    #####   ##        **
 **           ##                                                    ##        **
 **                                                                           **
 **                                                ... make the atoms dance   **
 **                                                                           **
 **            Copyright (C) by CP2K developers group (2000-2026)             **
 **                      J. Chem. Phys. 152, 194103 (2020)                    **
 **                                                                           **
 *******************************************************************************


 TOTAL NUMBERS AND MAXIMUM NUMBERS

  Total number of            - Atomic kinds:                                   2
                             - Atoms:                                          3
                             - Shell sets:                                     7
                             - Shells:                                        37
                             - Primitive Cartesian functions:                 33
                             - Cartesian basis functions:                    142
                             - Spherical basis functions:                    117

  Maximum angular momentum of the orbital basis functions:                     4


 SCF PARAMETERS         Density guess:                                    ATOMIC
                        --------------------------------------------------------
                        max_scf:                                             100
                        max_scf_history:                                       0
                        max_diis:                                              4
                        --------------------------------------------------------
                        eps_scf:                                        1.00E-08
                        eps_scf_history:                                0.00E+00
                        eps_diis:                                       1.00E-01
                        eps_eigval:                                     1.00E-05
                        --------------------------------------------------------
                        level_shift [a.u.]:                             0.000000
                        --------------------------------------------------------
                        Mixing method:                           DIRECT_P_MIXING
                        --------------------------------------------------------
                        No outer SCF

 Extrapolation method: initial_guess

 Number of electrons:                                                         10
 Number of occupied orbitals:                                                  5
 Number of molecular orbitals:                                                 5

 Number of orbital functions:                                                117
 Number of independent orbital functions:                                    117


 SCF WAVEFUNCTION OPTIMIZATION

  Step     Update method      Time    Convergence         Total energy    Change
  ------------------------------------------------------------------------------
     1 P_Mix/Diag. 0.40E+00    2.5     0.86707720       -76.3442383669 -7.63E+01
     2 P_Mix/Diag. 0.40E+00    1.3     0.38073411       -76.3610270087 -1.68E-02
     3 P_Mix/Diag. 0.40E+00    1.4     0.24520748       -76.3710582178 -1.00E-02
     4 P_Mix/Diag. 0.40E+00    1.3     0.14290449       -76.3763945650 -5.34E-03
     5 P_Mix/Diag. 0.40E+00    1.3     0.08599822       -76.3793735496 -2.98E-03
     6 DIIS/Diag.  0.30E-02    1.3     0.05180374       -76.3810943083 -1.72E-03
     7 DIIS/Diag.  0.60E-03    1.3     0.00035893       -76.3836078317 -2.51E-03
     8 DIIS/Diag.  0.23E-03    1.3     0.00014561       -76.3836078495 -1.79E-08
     9 DIIS/Diag.  0.29E-03    1.3     0.00008051       -76.3836078426  6.91E-09
    10 DIIS/Diag.  0.35E-05    1.3     0.00000155       -76.3836078602 -1.76E-08
    11 DIIS/Diag.  0.13E-05    1.3     0.00000069       -76.3836078602 -3.40E-12
    12 DIIS/Diag.  0.98E-06    1.3     0.00000030       -76.3836078602 -2.07E-12
    13 DIIS/Diag.  0.59E-07    1.3     0.00000001       -76.3836078602 -1.08E-12
    14 DIIS/Diag.  0.60E-08    1.3     2.9811E-09       -76.3836078602  1.21E-12

  *** SCF run converged in    14 steps ***


  Electronic density on regular grids:         -8.0420910304        1.9579089696
  Core density on regular grids:               10.0000000000       -0.0000000000
  Hard and soft densities (Lebedev):         -219.8611748690     -217.9032658450
  Total Rho_soft + Rho1_hard - Rho1_soft      -10.0000000544
  Total charge density (r-space):              -0.0000000544
  Total Rho_soft + Rho0_soft (g-space):        -0.0000000320

  Overlap energy of the core charge distribution:               0.00000011721531
  Self energy of the core charge distribution:                -75.73106814560732
  Core Hamiltonian energy:                                     -5.32228306412085
  Hartree energy:                                              21.72215611655236
  Exchange-correlation energy:                                 -9.24742699074096

  GAPW| Exc from hard and soft atomic rho1:                     0.00000000000000
  GAPW| local Eh = 1 center integrals:                         -7.80498589353306

  Total energy:                                               -76.38360786023453

 *** WARNING in xc/xc_gauxc_functional.F:1241 :: Using finite-difference ***
 *** GauXC XC gradients for METHOD GAPW with SKALA or all-electron basis ***
 *** functions beyond f shells.  The upstream analytical GauXC gradient  ***
 *** path is not yet reliable for this case.                             ***


 GAUXC| Molecular XC gradient virial diagnostic [a.u.]
 GAUXC|            x                   y                   z
 GAUXC| x   0.00000000000E+00   0.00000000000E+00   0.00000000000E+00
 GAUXC| y   0.00000000000E+00   9.19615194876E-01   6.55566379056E-12
 GAUXC| z   0.00000000000E+00   1.27051442476E-11   5.14548784054E-01
 GAUXC| Molecular XC gradient virial 1/3 Trace   4.78054659644E-01
 GAUXC| Molecular XC gradient sum   0.00000000000E+00   1.77635683940E-11   0.00000000000E+00
 GAUXC| Diagnostic only; this is not an analytical periodic stress tensor.

 GAUXC| Molecular XC virial finite-difference dx  1.0000E-04
 GAUXC| Molecular XC virial FD 1/3 Trace   4.78054659644E-01   4.78054658242E-01   1.40185402175E-09

 ENERGY| Total FORCE_EVAL ( QS ) energy [hartree]            -76.383607860235401

 FORCES| Atomic forces [hartree/bohr]
 FORCES|   Atom     x               y               z               |f|
 FORCES|      1 -4.55933568E-13 -2.31732814E-11 -1.44314998E-02   1.44314998E-02
 FORCES|      2  8.59857987E-14  9.42514427E-03  7.21575058E-03   1.18701475E-02
 FORCES|      3 -2.43889687E-14 -9.42514426E-03  7.21575057E-03   1.18701475E-02
 FORCES| Sum    -3.94336738E-13 -1.48860074E-11  1.34013627E-09
 FORCES| Total atomic force                                       1.34021900E-09

 -------------------------------------------------------------------------------
 -                                                                             -
 -                                DBCSR STATISTICS                             -
 -                                                                             -
 -------------------------------------------------------------------------------
 COUNTER                                    TOTAL       BLAS       SMM       ACC
 flops    57 x    30 x     5               256500       0.0%    100.0%      0.0%     
 flops    30 x    57 x     5               256500       0.0%    100.0%      0.0%     
 flops    30 x    30 x     5               405000       0.0%    100.0%      0.0%     
 flops    57 x    57 x     5               487350       0.0%    100.0%      0.0%     
 flops inhomo. stacks                           0       0.0%      0.0%      0.0%
 flops total                         1.405350E+06       0.0%    100.0%      0.0%
 flops max/rank                      1.405350E+06       0.0%    100.0%      0.0%
 matmuls inhomo. stacks                         0       0.0%      0.0%      0.0%
 matmuls total                                 90       0.0%    100.0%      0.0%
 number of processed stacks                    60       0.0%    100.0%      0.0%
 average stack size                                     0.0       1.5       0.0
 marketing flops                     2.053350E+06
 -------------------------------------------------------------------------------
 # multiplications                             15
 max memory usage/rank              34.208948E+09
 # max total images/rank                        1
 # max 3D layers                                1
 # MPI messages exchanged                       0
 -------------------------------------------------------------------------------
 -                                                                             -
 -                      DBCSR MESSAGE PASSING PERFORMANCE                      -
 -                                                                             -
 -------------------------------------------------------------------------------
 ROUTINE             CALLS      AVE VOLUME [Bytes]
 MP_Bcast                5                     12.
 MP_Allreduce          102                     12.
 MP_Alltoall           478                  52097.
 MP_ISend               60                     60.
 MP_IRecv               60                     60.
 -------------------------------------------------------------------------------

 -------------------------------------------------------------------------------
 -                                                                             -
 -                                GRID STATISTICS                              -
 -                                                                             -
 -------------------------------------------------------------------------------
 LP    KERNEL             BACKEND                              COUNT     PERCENT
 3     collocate ortho    CPU                                    720      12.30%
 6     collocate ortho    CPU                                    720      12.30%
 6     integrate ortho    CPU                                    680      11.62%
 3     integrate ortho    CPU                                    673      11.50%
 7     integrate ortho    CPU                                    496       8.47%
 7     collocate ortho    CPU                                    480       8.20%
 4     integrate ortho    CPU                                    384       6.56%
 4     collocate ortho    CPU                                    360       6.15%
 8     integrate ortho    CPU                                    256       4.37%
 8     collocate ortho    CPU                                    240       4.10%
 0     collocate ortho    CPU                                    165       2.82%
 0     integrate ortho    CPU                                    154       2.63%
 5     integrate ortho    CPU                                    136       2.32%
 5     collocate ortho    CPU                                    120       2.05%
 1     integrate ortho    CPU                                     67       1.14%
 1     collocate ortho    CPU                                     60       1.03%
 6     collocate general  CPU                                     45       0.77%
 6     integrate general  CPU                                     42       0.72%
 2     integrate ortho    CPU                                     18       0.31%
 9     integrate ortho    CPU                                     16       0.27%
 2     collocate ortho    CPU                                     15       0.26%
 0     collocate general  CPU                                      3       0.05%
 7     integrate general  CPU                                      3       0.05%
 -------------------------------------------------------------------------------

 -------------------------------------------------------------------------------
 -                                                                             -
 -                          OFFLOAD MEMPOOL STATISTICS                         -
 -                                                                             -
 -------------------------------------------------------------------------------
 Memory consumption                Number of allocations  Used [MiB]  Size [MiB]
 Device                                                7         101         101
 Host                                                  7         101         101
 -------------------------------------------------------------------------------

 MEMORY| Estimated peak process memory [MiB]                                3040

 -------------------------------------------------------------------------------
 -                                                                             -
 -                         MESSAGE PASSING PERFORMANCE                         -
 -                                                                             -
 -------------------------------------------------------------------------------

 ROUTINE             CALLS      AVE VOLUME [Bytes]
 MP_Group                5
 MP_Bcast              119                  51806.
 MP_Allreduce          405                  19254.
 MP_Sync                18
 MP_comm_split          14
 -------------------------------------------------------------------------------


 -------------------------------------------------------------------------------
 -                                                                             -
 -                           R E F E R E N C E S                               -
 -                                                                             -
 -------------------------------------------------------------------------------
 
 CP2K version 2026.1 (Development Version), the CP2K developers group (2026).
 CP2K is freely available from https://www.cp2k.org/ .
 
 M. Iannuzzi, J. Wilhelm, F. Stein, A. Bussy, H. Elgabarty, D. Golze, A. Hehn, 
 M. Graml, S. Marek, B. Sertcan Gökmen, C. Schran, H. Forbert, R. Z. 
 Khaliullin, A. Kozhevnikov, M. Taillefumier, R. Meli, V. V. Rybkin, M. Brehm, 
 R. Schade, O. Schütt, J. V. Pototschnig, H. Mirhosseini, A. Knüpfer, D. Marx, 
 M. Krack, J. Hutter, T. D. Kühne.
 J. Phys. Chem. B 130, 1237-1310 (2026).
 The CP2K Program Package Made Simple.
 https://doi.org/10.1021/acs.jpcb.5c05851

 T. D. Kühne, M. Iannuzzi, M. Del Ben, V. V. Rybkin, P. Seewald, F. Stein, T. 
 Laino, R. Z. Khaliullin, O. Schütt, F. Schiffmann, D. Golze, J. Wilhelm, S. 
 Chulkov, M. H. Bani-Hashemian, V. Weber, U. Borstnik, M. Taillefumier, A. S. 
 Jakobovits, A. Lazzaro, H. Pabst, T. Müller, R. Schade, M. Guidon, S. 
 Andermatt, N. Holmberg, G. K. Schenter, A. Hehn, A. Bussy, F. Belleflamme, G. 
 Tabacchi, A. Glöß, M. Lass, I. Bethune, C. J. Mundy, C. Plessl, M. Watkins, 
 J. VandeVondele, M. Krack, J. Hutter.
 J. Chem. Phys. 152, 194103 (2020).
 CP2K: An electronic structure and molecular dynamics software package - 
 Quickstep: Efficient and accurate electronic structure calculations.
 https://doi.org/10.1063/5.0007045

 O. Schuett, P. Messmer, J. Hutter, J. VandeVondele.
 Electronic Structure Calculations on Graphics Processing Units, 173-190 (2016).
 GPU-Accelerated Sparse Matrix-Matrix Multiplication for Linear Scaling Density 
 Functional Theory.
 https://doi.org/10.1002/9781118670712.ch8

 A. Heinecke, G. Henry, M. Hutchinson, H. Pabst.
 Proceedings of Intl. Supercomputing Conference, 981-991 (2016).
 LIBXSMM: Accelerating Small Matrix Multiplications by Runtime Code Generation.
 https://doi.org/10.1109/SC.2016.83

 U. Borstnik, J. VandeVondele, V. Weber, J. Hutter.
 Parallel Comput. 40, 47-58 (2014).
 Sparse matrix multiplication: The distributed block-compressed sparse row 
 library.
 https://doi.org/10.1016/j.parco.2014.03.012

 J. VandeVondele, J. Hutter.
 J. Chem. Phys. 127, 114105 (2007).
 Gaussian basis sets for accurate calculations on molecular systems in gas and 
 condensed phases.
 https://doi.org/10.1063/1.2770708

 M. Frigo, S. G. Johnson.
 Proc. IEEE 93, 216-231 (2005).
 The design and implementation of FFTW3.
 https://doi.org/10.1109/JPROC.2004.840301

 M. Krack, M. Parrinello.
 Phys. Chem. Chem. Phys. 2, 2105-2112 (2000).
 All-electron ab-initio molecular dynamics.
 https://doi.org/10.1039/b001167n

 G. Lippert, J. Hutter, M. Parrinello.
 Theor. Chem. Acc. 103, 124-140 (1999).
 The Gaussian and augmented-plane-wave density functional method for ab initio 
 molecular dynamics simulations.
 https://doi.org/10.1007/s002140050523

 G. J. Martyna, M. E. Tuckerman.
 J. Chem. Phys. 110, 2810-2821 (1999).
 A reciprocal space based method for treating long range interactions in ab 
 initio and force-field-based calculations in clusters.
 https://doi.org/10.1063/1.477923


 -------------------------------------------------------------------------------
 -                                                                             -
 -                                T I M I N G                                  -
 -                                                                             -
 -------------------------------------------------------------------------------
 SUBROUTINE                       CALLS  ASD         SELF TIME        TOTAL TIME
                                MAXIMUM       AVERAGE  MAXIMUM  AVERAGE  MAXIMUM
 CP2K                                 1  1.0    0.185    0.185   31.574   31.574
 qs_forces                            1  2.0    0.000    0.000   27.245   27.245
 rebuild_ks_matrix                   15  6.8    0.000    0.000   21.624   21.624
 qs_ks_build_kohn_sham_matrix        15  7.8   10.057   10.057   21.624   21.624
 qs_energies                          1  3.0    0.000    0.000   20.622   20.622
 scf_env_do_scf                       1  4.0    0.000    0.000   20.070   20.070
 scf_env_do_scf_inner_loop           14  5.0    0.004    0.004   20.070   20.070
 qs_ks_update_qs_env                 14  6.0    0.000    0.000   15.013   15.013
 fft_wrap_pw1pw2                    166 10.2    0.002    0.002   12.895   12.895
 fft_wrap_pw1pw2_300                 75 10.9    2.002    2.002   11.322   11.322
 qs_ks_update_qs_env_forces           1  3.0    0.000    0.000    6.611    6.611
 fft3d_s                            167 12.1    5.549    5.549    5.552    5.552
 qs_rho_update_rho_low               15  6.0    0.000    0.000    5.495    5.495
 calculate_rho_elec                  15  7.0    0.182    0.182    5.484    5.484
 density_rs2pw                       15  8.0    0.001    0.001    5.113    5.113
 qs_init_subsys                       1  2.0    0.001    0.001    4.113    4.113
 qs_env_setup                         1  3.0    0.000    0.000    4.082    4.082
 qs_env_rebuild_pw_env                3  3.7    0.000    0.000    4.082    4.082
 pw_env_rebuild                       1  5.0    0.000    0.000    4.082    4.082
 pw_grid_setup                        5  6.0    0.000    0.000    4.079    4.079
 pw_grid_setup_internal               5  7.0    0.036    0.036    4.079    4.079
 pw_grid_sort                         5  8.0    2.969    2.969    3.599    3.599
 prepare_gapw_den                    15  8.8    0.000    0.000    3.456    3.456
 pw_gather_s                         91 11.8    3.357    3.357    3.357    3.357
 sum_up_and_integrate                15  8.8    0.000    0.000    3.060    3.060
 integrate_v_rspace                  15  9.8    0.001    0.001    3.060    3.060
 put_rho0_on_grid                    15  9.8    0.184    0.184    2.953    2.953
 potential_pw2rs                     15 10.8    0.012    0.012    2.801    2.801
 pw_poisson_solve                    15  8.8    0.000    0.000    2.765    2.765
 pw_scatter_s                        75 12.6    1.553    1.553    1.553    1.553
 pw_poisson_rebuild                  15  9.8    0.028    0.028    1.262    1.262
 MTin_create_screen_fn                1 11.0    0.050    0.050    1.234    1.234
 fft_wrap_pw1pw2_600                  1 13.0    0.109    0.109    0.932    0.932
 pw_poisson_set                      16  9.6    0.000    0.000    0.867    0.867
 pw_copy                            181 10.7    0.706    0.706    0.706    0.706
 -------------------------------------------------------------------------------

 The number of warnings for this run is : 1
 
 -------------------------------------------------------------------------------
  **** **** ******  **  PROGRAM ENDED AT                 2026-05-30 14:51:37.072
 ***** ** ***  *** **   PROGRAM RAN ON                                spark-c86c
 **    ****   ******    PROGRAM RAN BY                                  kuehne88
 ***** **    ** ** **   PROGRAM PROCESS ID                                140768
  **** **  *******  **  PROGRAM STOPPED IN /home/kuehne88/molecular-skala-final-
                                           20260530-prhead/skala-molopt-bench/ru
                                           ns/H2O_GAPW_AE_gauxc_pbe_base
