 DBCSR| CPU Multiplication driver                                           XSMM (U)
 DBCSR| Multrec recursion limit                                              512 (U)
 DBCSR| Multiplication stack size                                           1000 (D)
 DBCSR| Maximum elements for images                                    UNLIMITED (U)
 DBCSR| Multiplicative factor virtual images                                   1 (U)
 DBCSR| Use multiplication densification                                       T (D)
 DBCSR| Multiplication size stacks                                             3 (U)
 DBCSR| Use memory pool for CPU allocation                                     F (U)
 DBCSR| Number of 3D layers                                               SINGLE (U)
 DBCSR| Use MPI memory allocation                                              F (U)
 DBCSR| Use RMA algorithm                                                      F (U)
 DBCSR| Use Communication thread                                               T (U)
 DBCSR| Communication thread load                                             87 (D)
 DBCSR| MPI: My process id                                                     0
 DBCSR| MPI: Number of processes                                               1
 DBCSR| OMP: Current number of threads                                         1
 DBCSR| OMP: Max number of threads                                             1
 DBCSR| Split modifier for TAS multiplication algorithm                  1.0E+00 (U)


  **** **** ******  **  PROGRAM STARTED AT               2026-05-30 14:43:28.668
 ***** ** ***  *** **   PROGRAM STARTED ON                            spark-c86c
 **    ****   ******    PROGRAM STARTED BY                              kuehne88
 ***** **    ** ** **   PROGRAM PROCESS ID                                136721
  **** **  *******  **  PROGRAM STARTED IN /home/kuehne88/molecular-skala-final-
                                           20260530-prhead/skala-molopt-bench/ru
                                           ns/H2O_GPW_skala_base

 CP2K| version string:                 CP2K version 2026.1 (Development Version)
 CP2K| source code revision number:                                   362771334d
 CP2K| cp2kflags: omp libint fftw3 libxc gauxc gauxc_mpi gauxc_onedft gauxc_host
 CP2K|             gauxc_device gauxc_cuda parallel scalapack xsmm spglib libtor
 CP2K|            rch
 CP2K| is freely available from                            https://www.cp2k.org/
 CP2K| Program compiled at                                   2026-05-29 22:13:32
 CP2K| Program compiled on                                            spark-c86c
 CP2K| Program compiled for                                              aarch64
 CP2K| Data directory path        /home/kuehne88/cp2k-periodic-skala-verify/data
 CP2K| Input file name                                                 input.inp

 GLOBAL| Force Environment number                                              1
 GLOBAL| Basis set file name                                    BASIS_MOLOPT_UZH
 GLOBAL| Potential file name                                       POTENTIAL_UZH
 GLOBAL| MM Potential file name                                     MM_POTENTIAL
 GLOBAL| Coordinate file name                                      __STD_INPUT__
 GLOBAL| Method name                                                        CP2K
 GLOBAL| Project name                                              H2O_GPW_skala
 GLOBAL| Run type                                                   ENERGY_FORCE
 GLOBAL| FFT library                                                       FFTW3
 GLOBAL| Diagonalization library                                       ScaLAPACK
 GLOBAL| Cholesky decomposition library                                ScaLAPACK
 GLOBAL| DGEMM library                                                      BLAS
 GLOBAL| Direct generalized diagonalization requested                          F
 GLOBAL| Orthonormality check for eigenvectors                          DISABLED
 GLOBAL| Matrix multiplication library                                 ScaLAPACK
 GLOBAL| All-to-all communication in single precision                          F
 GLOBAL| FFTs using library dependent lengths                                  F
 GLOBAL| Grid backend                                                       AUTO
 GLOBAL| Global print level                                                  LOW
 GLOBAL| MPI I/O enabled                                                       T
 GLOBAL| Total number of message passing processes                             1
 GLOBAL| Number of distributed systems (nodes)                                 1
 GLOBAL| Number of threads for this process                                    1
 GLOBAL| This output is from process                                           0
 GLOBAL| OpenMP stack size per thread (OMP_STACKSIZE)                       512M
 GLOBAL| CPU model name                                                  UNKNOWN
 GLOBAL| CPUID                                                              2200
 GLOBAL| Compiled for CPUID                                                 2000

 *** HINT in environment.F:970 :: The compiler target flags (arm_arch64)   ***
 *** used to build this binary cannot exploit all extensions of this CPU   ***
 *** model (arm_sve256). Consider compiler target flags as part of FCFLAGS ***
 *** and CFLAGS (ARCH file).                                               ***


 MEMORY| system memory details [Kb]
 MEMORY|                        rank 0           min           max       average
 MEMORY| MemTotal            125508532     125508532     125508532     125508532
 MEMORY| MemFree              49396936      49396936      49396936      49396936
 MEMORY| Buffers               1405332       1405332       1405332       1405332
 MEMORY| Cached               63659624      63659624      63659624      63659624
 MEMORY| Slab                  3513336       3513336       3513336       3513336
 MEMORY| SReclaimable          2655300       2655300       2655300       2655300
 MEMORY| MemLikelyFree       117117192     117117192     117117192     117117192


 GENERATE|  Preliminary Number of Bonds generated:                             0
 GENERATE|  Achieved consistency in connectivity generation.

 *******************************************************************************
 *******************************************************************************
 **                                                                           **
 **     #####                         ##              ##                      **
 **    ##   ##            ##          ##              ##                      **
 **   ##     ##                       ##            ######                    **
 **   ##     ##  ##   ##  ##   #####  ##  ##   ####   ##    #####    #####    **
 **   ##     ##  ##   ##  ##  ##      ## ##   ##      ##   ##   ##  ##   ##   **
 **   ##  ## ##  ##   ##  ##  ##      ####     ###    ##   ######   ######    **
 **    ##  ###   ##   ##  ##  ##      ## ##      ##   ##   ##       ##        **
 **     #######   #####   ##   #####  ##  ##  ####    ##    #####   ##        **
 **           ##                                                    ##        **
 **                                                                           **
 **                                                ... make the atoms dance   **
 **                                                                           **
 **            Copyright (C) by CP2K developers group (2000-2026)             **
 **                      J. Chem. Phys. 152, 194103 (2020)                    **
 **                                                                           **
 *******************************************************************************


 TOTAL NUMBERS AND MAXIMUM NUMBERS

  Total number of            - Atomic kinds:                                   2
                             - Atoms:                                          3
                             - Shell sets:                                     3
                             - Shells:                                        21
                             - Primitive Cartesian functions:                 15
                             - Cartesian basis functions:                     64
                             - Spherical basis functions:                     57

  Maximum angular momentum of- Orbital basis functions:                        3
                             - Local part of the GTH pseudopotential:          2
                             - Non-local part of the GTH pseudopotential:      0


 SCF PARAMETERS         Density guess:                                    ATOMIC
                        --------------------------------------------------------
                        max_scf:                                             100
                        max_scf_history:                                       0
                        max_diis:                                              4
                        --------------------------------------------------------
                        eps_scf:                                        1.00E-08
                        eps_scf_history:                                0.00E+00
                        eps_diis:                                       1.00E-01
                        eps_eigval:                                     1.00E-05
                        --------------------------------------------------------
                        level_shift [a.u.]:                             0.000000
                        --------------------------------------------------------
                        Mixing method:                           DIRECT_P_MIXING
                        --------------------------------------------------------
                        No outer SCF

 Extrapolation method: initial_guess

 Number of electrons:                                                          8
 Number of occupied orbitals:                                                  4
 Number of molecular orbitals:                                                 4

 Number of orbital functions:                                                 57
 Number of independent orbital functions:                                     57


 SCF WAVEFUNCTION OPTIMIZATION

  Step     Update method      Time    Convergence         Total energy    Change
  ------------------------------------------------------------------------------

 *** WARNING in xc/xc_gauxc_functional.F:1154 :: GauXC OneDFT/SKALA        ***
 *** nuclear gradients are sensitive to the GauXC molecular grid. Use GRID ***
 *** SUPERFINE and PRUNING_SCHEME UNPRUNED for quantitative force checks.  ***

     1 P_Mix/Diag. 0.40E+00    4.0     0.64046324       -17.0458321755 -1.70E+01

 *** WARNING in xc/xc_gauxc_functional.F:1154 :: GauXC OneDFT/SKALA        ***
 *** nuclear gradients are sensitive to the GauXC molecular grid. Use GRID ***
 *** SUPERFINE and PRUNING_SCHEME UNPRUNED for quantitative force checks.  ***

     2 P_Mix/Diag. 0.40E+00    2.8     0.42482927       -17.1207748529 -7.49E-02

 *** WARNING in xc/xc_gauxc_functional.F:1154 :: GauXC OneDFT/SKALA        ***
 *** nuclear gradients are sensitive to the GauXC molecular grid. Use GRID ***
 *** SUPERFINE and PRUNING_SCHEME UNPRUNED for quantitative force checks.  ***

     3 P_Mix/Diag. 0.40E+00    2.6     0.25301959       -17.1658931804 -4.51E-02

 *** WARNING in xc/xc_gauxc_functional.F:1154 :: GauXC OneDFT/SKALA        ***
 *** nuclear gradients are sensitive to the GauXC molecular grid. Use GRID ***
 *** SUPERFINE and PRUNING_SCHEME UNPRUNED for quantitative force checks.  ***

     4 P_Mix/Diag. 0.40E+00    2.5     0.15311253       -17.1923163268 -2.64E-02

 *** WARNING in xc/xc_gauxc_functional.F:1154 :: GauXC OneDFT/SKALA        ***
 *** nuclear gradients are sensitive to the GauXC molecular grid. Use GRID ***
 *** SUPERFINE and PRUNING_SCHEME UNPRUNED for quantitative force checks.  ***

     5 P_Mix/Diag. 0.40E+00    2.6     0.09332723       -17.2081668973 -1.59E-02

 *** WARNING in xc/xc_gauxc_functional.F:1154 :: GauXC OneDFT/SKALA        ***
 *** nuclear gradients are sensitive to the GauXC molecular grid. Use GRID ***
 *** SUPERFINE and PRUNING_SCHEME UNPRUNED for quantitative force checks.  ***

     6 DIIS/Diag.  0.44E-02    2.6     0.05842791       -17.2177065616 -9.54E-03

 *** WARNING in xc/xc_gauxc_functional.F:1154 :: GauXC OneDFT/SKALA        ***
 *** nuclear gradients are sensitive to the GauXC molecular grid. Use GRID ***
 *** SUPERFINE and PRUNING_SCHEME UNPRUNED for quantitative force checks.  ***

     7 DIIS/Diag.  0.29E-02    2.6     0.00596147       -17.2320855192 -1.44E-02

 *** WARNING in xc/xc_gauxc_functional.F:1154 :: GauXC OneDFT/SKALA        ***
 *** nuclear gradients are sensitive to the GauXC molecular grid. Use GRID ***
 *** SUPERFINE and PRUNING_SCHEME UNPRUNED for quantitative force checks.  ***

     8 DIIS/Diag.  0.42E-02    2.7     0.00775861       -17.2320812835  4.24E-06

 *** WARNING in xc/xc_gauxc_functional.F:1154 :: GauXC OneDFT/SKALA        ***
 *** nuclear gradients are sensitive to the GauXC molecular grid. Use GRID ***
 *** SUPERFINE and PRUNING_SCHEME UNPRUNED for quantitative force checks.  ***

     9 DIIS/Diag.  0.21E-02    2.6     0.00268113       -17.2320855257 -4.24E-06

 *** WARNING in xc/xc_gauxc_functional.F:1154 :: GauXC OneDFT/SKALA        ***
 *** nuclear gradients are sensitive to the GauXC molecular grid. Use GRID ***
 *** SUPERFINE and PRUNING_SCHEME UNPRUNED for quantitative force checks.  ***

    10 DIIS/Diag.  0.24E-03    2.6     0.00031875       -17.2320869234 -1.40E-06

 *** WARNING in xc/xc_gauxc_functional.F:1154 :: GauXC OneDFT/SKALA        ***
 *** nuclear gradients are sensitive to the GauXC molecular grid. Use GRID ***
 *** SUPERFINE and PRUNING_SCHEME UNPRUNED for quantitative force checks.  ***

    11 DIIS/Diag.  0.16E-04    2.7     0.00000654       -17.2320869517 -2.83E-08

 *** WARNING in xc/xc_gauxc_functional.F:1154 :: GauXC OneDFT/SKALA        ***
 *** nuclear gradients are sensitive to the GauXC molecular grid. Use GRID ***
 *** SUPERFINE and PRUNING_SCHEME UNPRUNED for quantitative force checks.  ***

    12 DIIS/Diag.  0.40E-05    2.7     0.00000081       -17.2320869491  2.62E-09

 *** WARNING in xc/xc_gauxc_functional.F:1154 :: GauXC OneDFT/SKALA        ***
 *** nuclear gradients are sensitive to the GauXC molecular grid. Use GRID ***
 *** SUPERFINE and PRUNING_SCHEME UNPRUNED for quantitative force checks.  ***

    13 DIIS/Diag.  0.19E-06    2.6     0.00000018       -17.2320869506 -1.51E-09

 *** WARNING in xc/xc_gauxc_functional.F:1154 :: GauXC OneDFT/SKALA        ***
 *** nuclear gradients are sensitive to the GauXC molecular grid. Use GRID ***
 *** SUPERFINE and PRUNING_SCHEME UNPRUNED for quantitative force checks.  ***

    14 DIIS/Diag.  0.19E-07    2.7     0.00000001       -17.2320869500  5.92E-10

 *** WARNING in xc/xc_gauxc_functional.F:1154 :: GauXC OneDFT/SKALA        ***
 *** nuclear gradients are sensitive to the GauXC molecular grid. Use GRID ***
 *** SUPERFINE and PRUNING_SCHEME UNPRUNED for quantitative force checks.  ***

    15 DIIS/Diag.  0.10E-07    2.7     0.00000002       -17.2320869501 -1.08E-10

 *** WARNING in xc/xc_gauxc_functional.F:1154 :: GauXC OneDFT/SKALA        ***
 *** nuclear gradients are sensitive to the GauXC molecular grid. Use GRID ***
 *** SUPERFINE and PRUNING_SCHEME UNPRUNED for quantitative force checks.  ***

    16 DIIS/Diag.  0.95E-07    2.7     0.00000003       -17.2320869513 -1.20E-09

 *** WARNING in xc/xc_gauxc_functional.F:1154 :: GauXC OneDFT/SKALA        ***
 *** nuclear gradients are sensitive to the GauXC molecular grid. Use GRID ***
 *** SUPERFINE and PRUNING_SCHEME UNPRUNED for quantitative force checks.  ***

    17 DIIS/Diag.  0.14E-07    2.6     8.2590E-09       -17.2320869497  1.59E-09

  *** SCF run converged in    17 steps ***


  Electronic density on regular grids:         -8.0000000000        0.0000000000
  Core density on regular grids:                7.9999999997       -0.0000000003
  Total charge density on r-space grids:       -0.0000000002
  Total charge density g-space grids:          -0.0000000002

  Overlap energy of the core charge distribution:               0.00000007064172
  Self energy of the core charge distribution:                -44.35427365113802
  Core Hamiltonian energy:                                     12.89547221208746
  Hartree energy:                                              18.47698123899336
  Exchange-correlation energy:                                 -4.25026682026788

  Total energy:                                               -17.23208694968337

 *** WARNING in xc/xc_gauxc_functional.F:1154 :: GauXC OneDFT/SKALA        ***
 *** nuclear gradients are sensitive to the GauXC molecular grid. Use GRID ***
 *** SUPERFINE and PRUNING_SCHEME UNPRUNED for quantitative force checks.  ***


 GAUXC| Molecular XC gradient virial diagnostic [a.u.]
 GAUXC|            x                   y                   z
 GAUXC| x   0.00000000000E+00  -7.93336440284E-04   1.51349185146E-09
 GAUXC| y   0.00000000000E+00   7.94598837798E-01   1.57699463884E-09
 GAUXC| z   0.00000000000E+00   1.57413201471E-09   3.89512759616E-01
 GAUXC| Molecular XC gradient virial 1/3 Trace   3.94703865804E-01
 GAUXC| Molecular XC gradient sum   5.13640779215E-16   2.72004641033E-15  -2.88657986403E-15
 GAUXC| Diagnostic only; this is not an analytical periodic stress tensor.

 GAUXC| Molecular XC virial finite-difference dx  1.0000E-04
 GAUXC| Molecular XC virial FD 1/3 Trace   3.94703865804E-01   3.94696113283E-01   7.75252131074E-06

 ENERGY| Total FORCE_EVAL ( QS ) energy [hartree]            -17.232086949102687

 FORCES| Atomic forces [hartree/bohr]
 FORCES|   Atom     x               y               z               |f|
 FORCES|      1  8.41810304E-11 -1.50332392E-09 -1.25674051E-02   1.25674051E-02
 FORCES|      2 -1.59579327E-06  3.91518304E-03  6.28369971E-03   7.40361687E-03
 FORCES|      3  1.59575756E-06 -3.91518148E-03  6.28369904E-03   7.40361548E-03
 FORCES| Sum     4.84763576E-11  5.76670812E-11 -6.31222841E-09
 FORCES| Total atomic force                                       6.31267795E-09

 -------------------------------------------------------------------------------
 -                                                                             -
 -                                DBCSR STATISTICS                             -
 -                                                                             -
 -------------------------------------------------------------------------------
 COUNTER                                    TOTAL       BLAS       SMM       ACC
 flops    29 x    14 x     4                58464       0.0%    100.0%      0.0%     
 flops    14 x    29 x     4                58464       0.0%    100.0%      0.0%     
 flops    14 x    14 x     4                84672       0.0%    100.0%      0.0%     
 flops    29 x    29 x     4               121104       0.0%    100.0%      0.0%     
 flops inhomo. stacks                           0       0.0%      0.0%      0.0%
 flops total                       322.704000E+03       0.0%    100.0%      0.0%
 flops max/rank                    322.704000E+03       0.0%    100.0%      0.0%
 matmuls inhomo. stacks                         0       0.0%      0.0%      0.0%
 matmuls total                                108       0.0%    100.0%      0.0%
 number of processed stacks                    72       0.0%    100.0%      0.0%
 average stack size                                     0.0       1.5       0.0
 marketing flops                   467.856000E+03
 -------------------------------------------------------------------------------
 # multiplications                             18
 max memory usage/rank              43.716239E+09
 # max total images/rank                        1
 # max 3D layers                                1
 # MPI messages exchanged                       0
 -------------------------------------------------------------------------------
 -                                                                             -
 -                      DBCSR MESSAGE PASSING PERFORMANCE                      -
 -                                                                             -
 -------------------------------------------------------------------------------
 ROUTINE             CALLS      AVE VOLUME [Bytes]
 MP_Bcast                5                     12.
 MP_Allreduce          117                     12.
 MP_Alltoall           577                  12629.
 MP_ISend               72                     60.
 MP_IRecv               72                     60.
 -------------------------------------------------------------------------------

 -------------------------------------------------------------------------------
 -                                                                             -
 -                                GRID STATISTICS                              -
 -                                                                             -
 -------------------------------------------------------------------------------
 LP    KERNEL             BACKEND                              COUNT     PERCENT
 4     collocate ortho    CPU                                   1332      24.80%
 4     integrate ortho    CPU                                   1258      23.43%
 5     integrate ortho    CPU                                    924      17.21%
 5     collocate ortho    CPU                                    900      16.76%
 6     integrate ortho    CPU                                    475       8.85%
 6     collocate ortho    CPU                                    450       8.38%
 7     integrate ortho    CPU                                     25       0.47%
 0     collocate general  CPU                                      3       0.06%
 1     integrate general  CPU                                      3       0.06%
 -------------------------------------------------------------------------------

 -------------------------------------------------------------------------------
 -                                                                             -
 -                          OFFLOAD MEMPOOL STATISTICS                         -
 -                                                                             -
 -------------------------------------------------------------------------------
 Memory consumption                Number of allocations  Used [MiB]  Size [MiB]
 Device                                                6          56          56
 Host                                                  6          56          56
 -------------------------------------------------------------------------------

 MEMORY| Estimated peak process memory [MiB]                                4964

 -------------------------------------------------------------------------------
 -                                                                             -
 -                         MESSAGE PASSING PERFORMANCE                         -
 -                                                                             -
 -------------------------------------------------------------------------------

 ROUTINE             CALLS      AVE VOLUME [Bytes]
 MP_Group                5
 MP_Bcast               34                    230.
 MP_Allreduce          276                   1706.
 MP_Sync                21
 MP_comm_split          17
 -------------------------------------------------------------------------------


 -------------------------------------------------------------------------------
 -                                                                             -
 -                           R E F E R E N C E S                               -
 -                                                                             -
 -------------------------------------------------------------------------------
 
 CP2K version 2026.1 (Development Version), the CP2K developers group (2026).
 CP2K is freely available from https://www.cp2k.org/ .
 
 M. Iannuzzi, J. Wilhelm, F. Stein, A. Bussy, H. Elgabarty, D. Golze, A. Hehn, 
 M. Graml, S. Marek, B. Sertcan Gökmen, C. Schran, H. Forbert, R. Z. 
 Khaliullin, A. Kozhevnikov, M. Taillefumier, R. Meli, V. V. Rybkin, M. Brehm, 
 R. Schade, O. Schütt, J. V. Pototschnig, H. Mirhosseini, A. Knüpfer, D. Marx, 
 M. Krack, J. Hutter, T. D. Kühne.
 J. Phys. Chem. B 130, 1237-1310 (2026).
 The CP2K Program Package Made Simple.
 https://doi.org/10.1021/acs.jpcb.5c05851

 T. D. Kühne, M. Iannuzzi, M. Del Ben, V. V. Rybkin, P. Seewald, F. Stein, T. 
 Laino, R. Z. Khaliullin, O. Schütt, F. Schiffmann, D. Golze, J. Wilhelm, S. 
 Chulkov, M. H. Bani-Hashemian, V. Weber, U. Borstnik, M. Taillefumier, A. S. 
 Jakobovits, A. Lazzaro, H. Pabst, T. Müller, R. Schade, M. Guidon, S. 
 Andermatt, N. Holmberg, G. K. Schenter, A. Hehn, A. Bussy, F. Belleflamme, G. 
 Tabacchi, A. Glöß, M. Lass, I. Bethune, C. J. Mundy, C. Plessl, M. Watkins, 
 J. VandeVondele, M. Krack, J. Hutter.
 J. Chem. Phys. 152, 194103 (2020).
 CP2K: An electronic structure and molecular dynamics software package - 
 Quickstep: Efficient and accurate electronic structure calculations.
 https://doi.org/10.1063/5.0007045

 O. Schuett, P. Messmer, J. Hutter, J. VandeVondele.
 Electronic Structure Calculations on Graphics Processing Units, 173-190 (2016).
 GPU-Accelerated Sparse Matrix-Matrix Multiplication for Linear Scaling Density 
 Functional Theory.
 https://doi.org/10.1002/9781118670712.ch8

 A. Heinecke, G. Henry, M. Hutchinson, H. Pabst.
 Proceedings of Intl. Supercomputing Conference, 981-991 (2016).
 LIBXSMM: Accelerating Small Matrix Multiplications by Runtime Code Generation.
 https://doi.org/10.1109/SC.2016.83

 U. Borstnik, J. VandeVondele, V. Weber, J. Hutter.
 Parallel Comput. 40, 47-58 (2014).
 Sparse matrix multiplication: The distributed block-compressed sparse row 
 library.
 https://doi.org/10.1016/j.parco.2014.03.012

 J. VandeVondele, J. Hutter.
 J. Chem. Phys. 127, 114105 (2007).
 Gaussian basis sets for accurate calculations on molecular systems in gas and 
 condensed phases.
 https://doi.org/10.1063/1.2770708

 J. VandeVondele, M. Krack, F. Mohamed, M. Parrinello, T. Chassaing, J. Hutter.
 Comput. Phys. Commun. 167, 103-128 (2005).
 QUICKSTEP: Fast and accurate density functional calculations using a mixed 
 Gaussian and plane waves approach.
 https://doi.org/10.1016/j.cpc.2004.12.014

 M. Krack.
 Theor. Chem. Acc. 114, 145-152 (2005).
 Pseudopotentials for H to Kr optimized for gradient-corrected 
 exchange-correlation functionals.
 https://doi.org/10.1007/s00214-005-0655-y

 M. Frigo, S. G. Johnson.
 Proc. IEEE 93, 216-231 (2005).
 The design and implementation of FFTW3.
 https://doi.org/10.1109/JPROC.2004.840301

 G. J. Martyna, M. E. Tuckerman.
 J. Chem. Phys. 110, 2810-2821 (1999).
 A reciprocal space based method for treating long range interactions in ab 
 initio and force-field-based calculations in clusters.
 https://doi.org/10.1063/1.477923

 C. Hartwigsen, S. Goedecker, J. Hutter.
 Phys. Rev. B 58, 3641-3662 (1998).
 Relativistic separable dual-space Gaussian pseudopotentials from H to Rn.
 https://doi.org/10.1103/PhysRevB.58.3641

 G. Lippert, J. Hutter, M. Parrinello.
 Mol. Phys. 92, 477-487 (1997).
 A hybrid Gaussian and plane wave density functional scheme.
 https://doi.org/10.1080/002689797170220

 S. Goedecker, M. Teter, J. Hutter.
 Phys. Rev. B 54, 1703-1710 (1996).
 Separable dual-space Gaussian pseudopotentials.
 https://doi.org/10.1103/PhysRevB.54.1703


 -------------------------------------------------------------------------------
 -                                                                             -
 -                                T I M I N G                                  -
 -                                                                             -
 -------------------------------------------------------------------------------
 SUBROUTINE                       CALLS  ASD         SELF TIME        TOTAL TIME
                                MAXIMUM       AVERAGE  MAXIMUM  AVERAGE  MAXIMUM
 CP2K                                 1  1.0    0.201    0.201   59.965   59.965
 qs_forces                            1  2.0    0.000    0.000   55.784   55.784
 rebuild_ks_matrix                   18  6.8    0.000    0.000   49.667   49.667
 qs_ks_build_kohn_sham_matrix        18  7.8   41.329   41.329   49.667   49.667
 qs_energies                          1  3.0    0.000    0.000   47.403   47.403
 scf_env_do_scf                       1  4.0    0.000    0.000   46.743   46.743
 scf_env_do_scf_inner_loop           17  5.0    0.001    0.001   46.743   46.743
 qs_ks_update_qs_env                 17  6.0    0.000    0.000   41.289   41.289
 fft_wrap_pw1pw2                    182 10.1    0.002    0.002   11.240   11.240
 fft_wrap_pw1pw2_300                 73 10.6    1.478    1.478    9.709    9.709
 qs_ks_update_qs_env_forces           1  3.0    0.000    0.000    8.379    8.379
 qs_rho_update_rho_low               18  6.0    0.000    0.000    5.851    5.851
 calculate_rho_elec                  18  7.0    0.218    0.218    5.851    5.851
 density_rs2pw                       18  8.0    0.001    0.001    5.492    5.492
 fft3d_s                            183 12.1    5.317    5.317    5.321    5.321
 qs_init_subsys                       1  2.0    0.000    0.000    3.968    3.968
 qs_env_setup                         1  3.0    0.000    0.000    3.967    3.967
 qs_env_rebuild_pw_env                3  3.7    0.000    0.000    3.967    3.967
 pw_env_rebuild                       1  5.0    0.000    0.000    3.967    3.967
 pw_grid_setup                        5  6.0    0.000    0.000    3.965    3.965
 pw_grid_setup_internal               5  7.0    0.036    0.036    3.965    3.965
 pw_grid_sort                         5  8.0    2.892    2.892    3.525    3.525
 sum_up_and_integrate                18  8.8    0.000    0.000    3.283    3.283
 integrate_v_rspace                  18  9.8    0.001    0.001    3.283    3.283
 potential_pw2rs                     18 10.8    0.013    0.013    3.129    3.129
 pw_poisson_solve                    18  8.8    0.000    0.000    2.747    2.747
 pw_gather_s                         92 11.6    2.474    2.474    2.474    2.474
 pw_scatter_s                        90 12.7    1.558    1.558    1.558    1.558
 -------------------------------------------------------------------------------

 The number of warnings for this run is : 18
 
 -------------------------------------------------------------------------------
  **** **** ******  **  PROGRAM ENDED AT                 2026-05-30 14:44:28.886
 ***** ** ***  *** **   PROGRAM RAN ON                                spark-c86c
 **    ****   ******    PROGRAM RAN BY                                  kuehne88
 ***** **    ** ** **   PROGRAM PROCESS ID                                136721
  **** **  *******  **  PROGRAM STOPPED IN /home/kuehne88/molecular-skala-final-
                                           20260530-prhead/skala-molopt-bench/ru
                                           ns/H2O_GPW_skala_base
