&GLOBAL
  PRINT_LEVEL MEDIUM
  PROJECT_NAME e4c70d8e604f01bf855b7f9591344fa541d89bf5
  RUN_TYPE ENERGY
&END GLOBAL
&FORCE_EVAL
  METHOD Quickstep
  &DFT
    BASIS_SET_FILE_NAME BASIS_MOLOPT_UZH
    POTENTIAL_FILE_NAME POTENTIAL_UZH
    CHARGE 0
    MULTIPLICITY 1
    UKS FALSE
    &MGRID
      CUTOFF 1000
      REL_CUTOFF 60
      NGRIDS 4
    &END MGRID
    &POISSON
      PERIODIC NONE
      POISSON_SOLVER ANALYTIC
    &END POISSON
    &QS
      EPS_DEFAULT 1e-10
    &END QS
    &SCF
      EPS_SCF 1e-05
      MAX_SCF 100
      SCF_GUESS ATOMIC
      &DIAGONALIZATION
      &END DIAGONALIZATION
      &MIXING
        METHOD DIRECT_P_MIXING
        ALPHA 0.4
        NMIXING 2
      &END MIXING
    &END SCF
    &XC
      &XC_FUNCTIONAL
        &GAUXC
          FUNCTIONAL PBE
          MODEL aug-s0-funv2-cpu.fun
          GRID FINE
          PRUNING_SCHEME ROBUST
          RADIAL_QUADRATURE MURAKNOWLES
        &END GAUXC
      &END XC_FUNCTIONAL
    &END XC
    &PRINT
      &MO
        ENERGIES T
        OCCNUMS  T
        &EACH
          QS_SCF 0
        &END
      &END
    &END
  &END DFT
  &SUBSYS
    &CELL
      ABC 33.0000 30.0000 32.0000
      ALPHA_BETA_GAMMA 90.0000 90.0000 90.0000
      PERIODIC NONE
    &END CELL
    &TOPOLOGY
      &CENTER_COORDINATES
      &END
    &END TOPOLOGY
    &COORD
      Si        0.0000000000        0.0000000000       -0.6902999977
      H         1.0901299994        0.0000000000        0.3451499988
      H        -1.0901299994        0.0000000000        0.3451499988
    &END COORD
    &KIND H
      BASIS_SET TZVP-MOLOPT-SCAN-GTH-q1
      POTENTIAL GTH-SCAN-q1
    &END KIND
    &KIND Si
      BASIS_SET TZVP-MOLOPT-SCAN-GTH-q4
      POTENTIAL GTH-SCAN-q4
    &END KIND
  &END SUBSYS
&END FORCE_EVAL

================================================================================
=== END OF CP2K INPUT / START OF CP2K OUTPUT ===
================================================================================

 DBCSR| CPU Multiplication driver                                           BLAS (U)
 DBCSR| Multrec recursion limit                                              512 (U)
 DBCSR| Multiplication stack size                                           1000 (D)
 DBCSR| Maximum elements for images                                    UNLIMITED (U)
 DBCSR| Multiplicative factor virtual images                                   1 (U)
 DBCSR| Use multiplication densification                                       T (D)
 DBCSR| Multiplication size stacks                                             3 (U)
 DBCSR| Use memory pool for CPU allocation                                     F (U)
 DBCSR| Number of 3D layers                                               SINGLE (U)
 DBCSR| Use MPI memory allocation                                              F (U)
 DBCSR| Use RMA algorithm                                                      F (U)
 DBCSR| Use Communication thread                                               T (U)
 DBCSR| Communication thread load                                             87 (D)
 DBCSR| MPI: My process id                                                     0
 DBCSR| MPI: Number of processes                                              16
 DBCSR| OMP: Current number of threads                                         1
 DBCSR| OMP: Max number of threads                                             1
 DBCSR| Split modifier for TAS multiplication algorithm                  1.0E+00 (U)


  **** **** ******  **  PROGRAM STARTED AT               2026-08-13 12:31:28.061
 ***** ** ***  *** **   PROGRAM STARTED ON        eb3791e2ef3243b6944400b65b9622
 **    ****   ******    PROGRAM STARTED BY                             <unknown>
 ***** **    ** ** **   PROGRAM PROCESS ID                                   811
  **** **  *******  **  PROGRAM STARTED IN                    /tmp/cp2k_4rsksr28

 CP2K| version string:                                       CP2K version 2026.2
 CP2K| source code revision number:                                  git:c92cc08
 CP2K| cp2kflags: omp libint fftw3 libxc gauxc gauxc_mpi gauxc_onedft gauxc_host
 CP2K|             parallel scalapack mpi_f08 spglib sirius libtorch hdf5
 CP2K| is freely available from                            https://www.cp2k.org/
 CP2K| Program compiled at                                   2026-08-13 02:05:42
 CP2K| Program compiled on                                                      
 CP2K| Program compiled for                                               x86_64
 CP2K| Data directory path                             /opt/cp2k/share/cp2k/data
 CP2K| Input file name                                            cp2k_input.inp

 GLOBAL| Force Environment number                                              1
 GLOBAL| Basis set file name                                    BASIS_MOLOPT_UZH
 GLOBAL| Potential file name                                       POTENTIAL_UZH
 GLOBAL| MM Potential file name                                     MM_POTENTIAL
 GLOBAL| Coordinate file name                                      __STD_INPUT__
 GLOBAL| Method name                                                        CP2K
 GLOBAL| Project name                   e4c70d8e604f01bf855b7f9591344fa541d89bf5
 GLOBAL| Run type                                                         ENERGY
 GLOBAL| FFT library                                                       FFTW3
 GLOBAL| Diagonalization library                                       ScaLAPACK
 GLOBAL| Cholesky decomposition library                                ScaLAPACK
 GLOBAL| DGEMM library                                                      BLAS
 GLOBAL| Direct generalized diagonalization requested                          F
 GLOBAL| Orthonormality check for eigenvectors                          DISABLED
 GLOBAL| Matrix multiplication library                                 ScaLAPACK
 GLOBAL| All-to-all communication in single precision                          F
 GLOBAL| FFTs using library dependent lengths                                  F
 GLOBAL| Grid backend                                                       AUTO
 GLOBAL| Global print level                                               MEDIUM
 GLOBAL| MPI I/O enabled                                                       T
 GLOBAL| Total number of message passing processes                            16
 GLOBAL| Number of distributed systems (nodes)                                 1
 GLOBAL| Number of threads for this process                                    1
 GLOBAL| This output is from process                                           0
 GLOBAL| OpenMP stack size per thread (OMP_STACKSIZE)                        16M
 GLOBAL| CPU model name                          AMD EPYC 9V74 80-Core Processor
 GLOBAL| CPUID                                                              1002

 MEMORY| system memory details [Kb]
 MEMORY|                        rank 0           min           max       average
 MEMORY| MemTotal            263924012     263924012     263924012     263924012
 MEMORY| MemFree             239057428     239057428     239057428     239057428
 MEMORY| Buffers                357936        357936        357936        357936
 MEMORY| Cached               17858920      17858920      17858920      17858920
 MEMORY| Slab                  1463588       1463588       1463588       1463588
 MEMORY| SReclaimable          1119996       1119996       1119996       1119996
 MEMORY| MemLikelyFree       258394280     258394280     258394280     258394280


 *** Fundamental physical constants (SI units) ***

 *** Literature: B. J. Mohr and B. N. Taylor,
 ***             CODATA recommended values of the fundamental physical
 ***             constants: 2006, Web Version 5.1
 ***             http://physics.nist.gov/constants

 Speed of light in vacuum [m/s]                             2.99792458000000E+08
 Magnetic constant or permeability of vacuum [N/A**2]       1.25663706143592E-06
 Electric constant or permittivity of vacuum [F/m]          8.85418781762039E-12
 Planck constant (h) [J*s]                                  6.62606896000000E-34
 Planck constant (h-bar) [J*s]                              1.05457162825177E-34
 Elementary charge [C]                                      1.60217648700000E-19
 Electron mass [kg]                                         9.10938215000000E-31
 Electron g factor [ ]                                     -2.00231930436220E+00
 Proton mass [kg]                                           1.67262163700000E-27
 Fine-structure constant                                    7.29735253760000E-03
 Rydberg constant [1/m]                                     1.09737315685270E+07
 Avogadro constant [1/mol]                                  6.02214179000000E+23
 Boltzmann constant [J/K]                                   1.38065040000000E-23
 Atomic mass unit [kg]                                      1.66053878200000E-27
 Bohr radius [m]                                            5.29177208590000E-11

 *** Conversion factors ***

 [u] -> [a.u.]                                              1.82288848426455E+03
 [Angstrom] -> [Bohr] = [a.u.]                              1.88972613288564E+00
 [a.u.] = [Bohr] -> [Angstrom]                              5.29177208590000E-01
 [a.u.] -> [s]                                              2.41888432650478E-17
 [a.u.] -> [fs]                                             2.41888432650478E-02
 [a.u.] -> [J]                                              4.35974393937059E-18
 [a.u.] -> [N]                                              8.23872205491840E-08
 [a.u.] -> [K]                                              3.15774647902944E+05
 [a.u.] -> [kJ/mol]                                         2.62549961709828E+03
 [a.u.] -> [kcal/mol]                                       6.27509468713739E+02
 [a.u.] -> [Pa]                                             2.94210107994716E+13
 [a.u.] -> [bar]                                            2.94210107994716E+08
 [a.u.] -> [atm]                                            2.90362800883016E+08
 [a.u.] -> [eV]                                             2.72113838565563E+01
 [a.u.] -> [Hz]                                             6.57968392072181E+15
 [a.u.] -> [1/cm] (wave numbers)                            2.19474631370540E+05
 [a.u./Bohr**2] -> [1/cm]                                   5.14048714338585E+03
 

 CELL| Volume [angstrom^3]:                                         31680.000000
 CELL| Vector a [angstrom]:      33.000     0.000     0.000   |a| =    33.000000
 CELL| Vector b [angstrom]:       0.000    30.000     0.000   |b| =    30.000000
 CELL| Vector c [angstrom]:       0.000     0.000    32.000   |c| =    32.000000
 CELL| Angle (b,c), alpha [degree]:                                    90.000000
 CELL| Angle (a,c), beta  [degree]:                                    90.000000
 CELL| Angle (a,b), gamma [degree]:                                    90.000000
 CELL| Numerically orthorhombic:                                             YES
 CELL| Periodicity                                                          NONE

 CELL_REF| Volume [angstrom^3]:                                     31680.000000
 CELL_REF| Vector a [angstrom    33.000     0.000     0.000   |a| =    33.000000
 CELL_REF| Vector b [angstrom     0.000    30.000     0.000   |b| =    30.000000
 CELL_REF| Vector c [angstrom     0.000     0.000    32.000   |c| =    32.000000
 CELL_REF| Angle (b,c), alpha [degree]:                                90.000000
 CELL_REF| Angle (a,c), beta  [degree]:                                90.000000
 CELL_REF| Angle (a,b), gamma [degree]:                                90.000000
 CELL_REF| Numerically orthorhombic:                                         YES
 CELL_REF| Periodicity                                                      NONE

 GENERATE|  Preliminary Number of Bonds generated:                             0
 GENERATE|  Achieved consistency in connectivity generation.

 *******************************************************************************
 *******************************************************************************
 **                                                                           **
 **     #####                         ##              ##                      **
 **    ##   ##            ##          ##              ##                      **
 **   ##     ##                       ##            ######                    **
 **   ##     ##  ##   ##  ##   #####  ##  ##   ####   ##    #####    #####    **
 **   ##     ##  ##   ##  ##  ##      ## ##   ##      ##   ##   ##  ##   ##   **
 **   ##  ## ##  ##   ##  ##  ##      ####     ###    ##   ######   ######    **
 **    ##  ###   ##   ##  ##  ##      ## ##      ##   ##   ##       ##        **
 **     #######   #####   ##   #####  ##  ##  ####    ##    #####   ##        **
 **           ##                                                    ##        **
 **                                                                           **
 **                                                ... make the atoms dance   **
 **                                                                           **
 **            Copyright (C) by CP2K developers group (2000-2026)             **
 **                      J. Chem. Phys. 152, 194103 (2020)                    **
 **                                                                           **
 *******************************************************************************

 DFT| Spin restricted Kohn-Sham (RKS) calculation                            RKS
 DFT| Multiplicity                                                             1
 DFT| Number of spin states                                                    1
 DFT| Charge                                                                   0
 DFT| Self-interaction correction (SIC)                                       NO
 DFT| Cutoffs: density                                              1.000000E-10
 DFT|          gradient                                             1.000000E-10
 DFT|          tau                                                  1.000000E-10
 DFT|          cutoff_smoothing_range                               0.000000E+00
 DFT| XC density smoothing                                                  NONE
 DFT| XC derivatives                                                          PW

 FUNCTIONAL| GAUXC:
 FUNCTIONAL| Functional computed by GauXC Skala model aug-s0-funv2-cpu.fun      


 QS| Method:                                                                 GPW
 QS| Density plane wave grid type                        NON-SPHERICAL FULLSPACE
 QS| Number of grid levels:                                                    4
 QS| Density cutoff [a.u.]:                                                500.0
 QS| Multi grid cutoff [a.u.]: 1) grid level                               500.0
 QS|                           2) grid level                               166.7
 QS|                           3) grid level                                55.6
 QS|                           4) grid level                                18.5
 QS| Grid level progression factor:                                          3.0
 QS| Relative density cutoff [a.u.]:                                        30.0
 QS| Interaction thresholds: eps_pgf_orb:                                1.0E-05
 QS|                         eps_filter_matrix:                          0.0E+00
 QS|                         eps_core_charge:                            1.0E-12
 QS|                         eps_rho_gspace:                             1.0E-10
 QS|                         eps_rho_rspace:                             1.0E-10
 QS|                         eps_gvg_rspace:                             1.0E-05
 QS|                         eps_ppl:                                    1.0E-02
 QS|                         eps_ppnl:                                   1.0E-07


 ATOMIC KIND INFORMATION

  1. Atomic kind: Si                                    Number of atoms:       1

     Orbital Basis Set                                   TZVP-MOLOPT-SCAN-GTH-q4

       Number of orbital shell sets:                                           1
       Number of orbital shells:                                               7
       Number of primitive Cartesian functions:                                4
       Number of Cartesian basis functions:                                   18
       Number of spherical basis functions:                                   17
       Norm type:                                                              2

       Normalised Cartesian orbitals:

                        Set   Shell   Orbital            Exponent    Coefficient

                          1       1    2s                1.216446      -0.038800
                                                         0.423729       0.012286
                                                         0.168790      -0.118260
                                                         0.049081      -0.032419

                          1       2    3s                1.216446      -1.082535
                                                         0.423729       0.416470
                                                         0.168790       0.158843
                                                         0.049081      -0.074133

                          1       3    4s                1.216446      -0.718969
                                                         0.423729       0.062528
                                                         0.168790      -0.100256
                                                         0.049081       0.065253

                          1       4    3px               1.216446       0.165950
                                                         0.423729      -0.266417
                                                         0.168790      -0.084079
                                                         0.049081      -0.001268
                          1       4    3py               1.216446       0.165950
                                                         0.423729      -0.266417
                                                         0.168790      -0.084079
                                                         0.049081      -0.001268
                          1       4    3pz               1.216446       0.165950
                                                         0.423729      -0.266417
                                                         0.168790      -0.084079
                                                         0.049081      -0.001268

                          1       5    4px               1.216446       0.199186
                                                         0.423729      -0.338029
                                                         0.168790       0.102334
                                                         0.049081       0.023456
                          1       5    4py               1.216446       0.199186
                                                         0.423729      -0.338029
                                                         0.168790       0.102334
                                                         0.049081       0.023456
                          1       5    4pz               1.216446       0.199186
                                                         0.423729      -0.338029
                                                         0.168790       0.102334
                                                         0.049081       0.023456

                          1       6    5px               1.216446      -1.660648
                                                         0.423729       0.095224
                                                         0.168790      -0.061358
                                                         0.049081       0.023083
                          1       6    5py               1.216446      -1.660648
                                                         0.423729       0.095224
                                                         0.168790      -0.061358
                                                         0.049081       0.023083
                          1       6    5pz               1.216446      -1.660648
                                                         0.423729       0.095224
                                                         0.168790      -0.061358
                                                         0.049081       0.023083

                          1       7    4dx2              1.216446       0.430800
                                                         0.423729       0.205344
                                                         0.168790       0.028687
                                                         0.049081       0.000332
                          1       7    4dxy              1.216446       0.746167
                                                         0.423729       0.355666
                                                         0.168790       0.049687
                                                         0.049081       0.000576
                          1       7    4dxz              1.216446       0.746167
                                                         0.423729       0.355666
                                                         0.168790       0.049687
                                                         0.049081       0.000576
                          1       7    4dy2              1.216446       0.430800
                                                         0.423729       0.205344
                                                         0.168790       0.028687
                                                         0.049081       0.000332
                          1       7    4dyz              1.216446       0.746167
                                                         0.423729       0.355666
                                                         0.168790       0.049687
                                                         0.049081       0.000576
                          1       7    4dz2              1.216446       0.430800
                                                         0.423729       0.205344
                                                         0.168790       0.028687
                                                         0.049081       0.000332

       Atomic covalent radius [Angstrom]:                                  1.110

       Atomic van der Waals radius [Angstrom]:                             2.100

     GTH Potential information for                                   GTH-SCAN-q4

       Description:                       Goedecker-Teter-Hutter pseudopotential
                                           Goedecker et al., PRB 54, 1703 (1996)
                                          Hartwigsen et al., PRB 58, 3641 (1998)
                                                      Krack, TCA 114, 145 (2005)

       Gaussian exponent of the core charge distribution:               2.565716
       Electronic configuration (s p d ...):                       2   2   0   0

       Parameters of the local part of the GTH pseudopotential:

                          rloc        C1          C2          C3          C4
                        0.441449   -6.125207

       Parameters of the non-local part of the GTH pseudopotential:

                   l      r(l)      h(i,j,l)

                   0    0.435533    8.953533   -2.706271
                                   -2.706271    3.510709
                   1    0.495410    2.431366

  2. Atomic kind: H                                     Number of atoms:       2

     Orbital Basis Set                                   TZVP-MOLOPT-SCAN-GTH-q1

       Number of orbital shell sets:                                           1
       Number of orbital shells:                                               4
       Number of primitive Cartesian functions:                                5
       Number of Cartesian basis functions:                                    6
       Number of spherical basis functions:                                    6
       Norm type:                                                              2

       Normalised Cartesian orbitals:

                        Set   Shell   Orbital            Exponent    Coefficient

                          1       1    2s                9.168765       0.095357
                                                         2.161194       0.125778
                                                         0.619868       0.162183
                                                         0.161316       0.074849
                                                         0.412255       0.090962

                          1       2    3s                9.168765      -0.435739
                                                         2.161194      -0.868971
                                                         0.619868      -0.406683
                                                         0.161316      -0.142964
                                                         0.412255       0.978336

                          1       3    4s                9.168765       0.385896
                                                         2.161194       1.113624
                                                         0.619868       0.043366
                                                         0.161316      -0.067676
                                                         0.412255       0.053421

                          1       4    3px               9.168765      -1.788640
                                                         2.161194       0.906920
                                                         0.619868       0.273605
                                                         0.161316       0.091389
                                                         0.412255       0.008094
                          1       4    3py               9.168765      -1.788640
                                                         2.161194       0.906920
                                                         0.619868       0.273605
                                                         0.161316       0.091389
                                                         0.412255       0.008094
                          1       4    3pz               9.168765      -1.788640
                                                         2.161194       0.906920
                                                         0.619868       0.273605
                                                         0.161316       0.091389
                                                         0.412255       0.008094

       Atomic covalent radius [Angstrom]:                                  0.320

       Atomic van der Waals radius [Angstrom]:                             1.090

     GTH Potential information for                                   GTH-SCAN-q1

       Description:                       Goedecker-Teter-Hutter pseudopotential
                                           Goedecker et al., PRB 54, 1703 (1996)
                                          Hartwigsen et al., PRB 58, 3641 (1998)
                                                      Krack, TCA 114, 145 (2005)

       Gaussian exponent of the core charge distribution:              12.429142
       Electronic configuration (s p d ...):                       1   0   0   0

       Parameters of the local part of the GTH pseudopotential:

                          rloc        C1          C2          C3          C4
                        0.200569   -4.177243    0.723816


 MOLECULE KIND INFORMATION


 All atoms are their own molecule, skipping detailed information


 TOTAL NUMBERS AND MAXIMUM NUMBERS

  Total number of            - Atomic kinds:                                   2
                             - Atoms:                                          3
                             - Shell sets:                                     3
                             - Shells:                                        15
                             - Primitive Cartesian functions:                 14
                             - Cartesian basis functions:                     30
                             - Spherical basis functions:                     29

  Maximum angular momentum of- Orbital basis functions:                        2
                             - Local part of the GTH pseudopotential:          2
                             - Non-local part of the GTH pseudopotential:      2


 MODULE QUICKSTEP: ATOMIC COORDINATES IN ANGSTROM

   Atom Kind Element         X             Y             Z       Z(eff)     Mass
      1    1 Si   14     16.500000     15.000000     15.482275   4.0000  28.0855
      2    2 H     1     17.590130     15.000000     16.517725   1.0000   1.0079
      3    2 H     1     15.409870     15.000000     16.517725   1.0000   1.0079



 SCF PARAMETERS         Density guess:                                    ATOMIC
                        --------------------------------------------------------
                        max_scf:                                             100
                        max_scf_history:                                       0
                        max_diis:                                              4
                        --------------------------------------------------------
                        eps_scf:                                        1.00E-05
                        eps_scf_history:                                0.00E+00
                        eps_diis:                                       1.00E-01
                        eps_eigval:                                     1.00E-05
                        --------------------------------------------------------
                        level_shift [a.u.]:                             0.000000
                        --------------------------------------------------------
                        Mixing method:                           DIRECT_P_MIXING
                        --------------------------------------------------------
                        No outer SCF

 PW_GRID| Information for grid number                                          1
 PW_GRID| Grid distributed over                                    16 processors
 PW_GRID| Real space group dimensions                                    16    1
 PW_GRID| the grid is blocked:                                                NO
 PW_GRID| Cutoff [a.u.]                                                    500.0
 PW_GRID| spherical cutoff:                                                   NO
 PW_GRID|   Bounds   1           -320     319                Points:         640
 PW_GRID|   Bounds   2           -288     287                Points:         576
 PW_GRID|   Bounds   3           -312     312                Points:         625
 PW_GRID| Volume element (a.u.^3)  0.9279E-03     Volume (a.u.^3)    213787.2396
 PW_GRID| Grid span                                                    FULLSPACE
 PW_GRID|   Distribution                         Average         Max         Min
 PW_GRID|   G-Vectors                         14400000.0    14400000    14400000
 PW_GRID|   G-Rays                               22500.0       22500       22500
 PW_GRID|   Real Space Points                 14400000.0    14400000    14400000

 PW_GRID| Information for grid number                                          2
 PW_GRID| Number of the reference grid                                         1
 PW_GRID| Grid distributed over                                    16 processors
 PW_GRID| Real space group dimensions                                    16    1
 PW_GRID| the grid is blocked:                                                NO
 PW_GRID| Cutoff [a.u.]                                                    166.7
 PW_GRID| spherical cutoff:                                                   NO
 PW_GRID|   Bounds   1           -187     187                Points:         375
 PW_GRID|   Bounds   2           -180     179                Points:         360
 PW_GRID|   Bounds   3           -180     179                Points:         360
 PW_GRID| Volume element (a.u.^3)  0.4399E-02     Volume (a.u.^3)    213787.2396
 PW_GRID| Grid span                                                    FULLSPACE
 PW_GRID|   Distribution                         Average         Max         Min
 PW_GRID|   G-Vectors                          3037500.0     3038250     3037125
 PW_GRID|   G-Rays                                8100.0        8102        8099
 PW_GRID|   Real Space Points                  3037500.0     3110400     2980800

 PW_GRID| Information for grid number                                          3
 PW_GRID| Number of the reference grid                                         1
 PW_GRID| Grid distributed over                                    16 processors
 PW_GRID| Real space group dimensions                                    16    1
 PW_GRID| the grid is blocked:                                                NO
 PW_GRID| Cutoff [a.u.]                                                     55.6
 PW_GRID| spherical cutoff:                                                   NO
 PW_GRID|   Bounds   1           -108     107                Points:         216
 PW_GRID|   Bounds   2            -96      95                Points:         192
 PW_GRID|   Bounds   3           -108     107                Points:         216
 PW_GRID| Volume element (a.u.^3)  0.2387E-01     Volume (a.u.^3)    213787.2396
 PW_GRID| Grid span                                                    FULLSPACE
 PW_GRID|   Distribution                         Average         Max         Min
 PW_GRID|   G-Vectors                           559872.0      560088      559656
 PW_GRID|   G-Rays                                2592.0        2593        2591
 PW_GRID|   Real Space Points                   559872.0      580608      539136

 PW_GRID| Information for grid number                                          4
 PW_GRID| Number of the reference grid                                         1
 PW_GRID| Grid distributed over                                    16 processors
 PW_GRID| Real space group dimensions                                    16    1
 PW_GRID| the grid is blocked:                                                NO
 PW_GRID| Cutoff [a.u.]                                                     18.5
 PW_GRID| spherical cutoff:                                                   NO
 PW_GRID|   Bounds   1            -62      62                Points:         125
 PW_GRID|   Bounds   2            -60      59                Points:         120
 PW_GRID|   Bounds   3            -60      59                Points:         120
 PW_GRID| Volume element (a.u.^3)  0.1188         Volume (a.u.^3)    213787.2396
 PW_GRID| Grid span                                                    FULLSPACE
 PW_GRID|   Distribution                         Average         Max         Min
 PW_GRID|   G-Vectors                           112500.0      112750      112375
 PW_GRID|   G-Rays                                 900.0         902         899
 PW_GRID|   Real Space Points                   112500.0      115200      100800

 POISSON| Solver                                                        ANALYTIC
 POISSON| Periodicity                                                       NONE

 RS_GRID| Information for grid number                                          1
 RS_GRID|   Bounds   1           -320     319                Points:         640
 RS_GRID|   Bounds   2           -288     287                Points:         576
 RS_GRID|   Bounds   3           -312     312                Points:         625
 RS_GRID| Real space distribution over                                  4 groups
 RS_GRID| Real space distribution along direction                              1
 RS_GRID| Border size                                                         34
 RS_GRID| Real space distribution over                                  4 groups
 RS_GRID| Real space distribution along direction                              3
 RS_GRID| Border size                                                         34
 RS_GRID|   Distribution                         Average         Max         Min
 RS_GRID|   Planes                                 228.0         228         228
 RS_GRID|   Distribution                         Average         Max         Min
 RS_GRID|   Planes                                 224.2         225         224

 RS_GRID| Information for grid number                                          2
 RS_GRID|   Bounds   1           -187     187                Points:         375
 RS_GRID|   Bounds   2           -180     179                Points:         360
 RS_GRID|   Bounds   3           -180     179                Points:         360
 RS_GRID| Real space distribution over                                  4 groups
 RS_GRID| Real space distribution along direction                              1
 RS_GRID| Border size                                                         25
 RS_GRID| Real space distribution over                                  4 groups
 RS_GRID| Real space distribution along direction                              3
 RS_GRID| Border size                                                         25
 RS_GRID|   Distribution                         Average         Max         Min
 RS_GRID|   Planes                                 143.8         144         143
 RS_GRID|   Distribution                         Average         Max         Min
 RS_GRID|   Planes                                 140.0         140         140

 RS_GRID| Information for grid number                                          3
 RS_GRID|   Bounds   1           -108     107                Points:         216
 RS_GRID|   Bounds   2            -96      95                Points:         192
 RS_GRID|   Bounds   3           -108     107                Points:         216
 RS_GRID| Real space fully replicated
 RS_GRID| Group size                                                           1

 RS_GRID| Information for grid number                                          4
 RS_GRID|   Bounds   1            -62      62                Points:         125
 RS_GRID|   Bounds   2            -60      59                Points:         120
 RS_GRID|   Bounds   3            -60      59                Points:         120
 RS_GRID| Real space fully replicated
 RS_GRID| Group size                                                           1

 Extrapolation method: initial_guess

 Atomic guess: The first density matrix is obtained in terms of atomic orbitals
               and electronic configurations assigned to each atomic kind

 Guess for atomic kind: Si

 Electronic structure
    Total number of core electrons                                         10.00
    Total number of valence electrons                                       4.00
    Total number of electrons                                              14.00
    Multiplicity                                                   not specified
    S   [  2.00  2.00] 2.00
    P   [  6.00] 2.00


 *******************************************************************************
                  Iteration          Convergence                     Energy [au]
 *******************************************************************************
                          1        0.537382E-01                  -3.661533087532
                          2        0.227595E-01                  -3.664304527760
                          3        0.200097E-03                  -3.665017588330
                          4        0.821645E-06                  -3.665017641412

 Energy components [Hartree]           Total Energy ::           -3.665017641412
                                        Band Energy ::           -0.978497193520
                                     Kinetic Energy ::            1.385169340970
                                   Potential Energy ::           -5.050186982382
                                      Virial (-V/T) ::            3.645898615432
                                        Core Energy ::           -5.667721494982
                                          XC Energy ::           -0.980982178883
                                     Coulomb Energy ::            2.983686032453
                       Total Pseudopotential Energy ::           -7.097886600236
                       Local Pseudopotential Energy ::           -7.923124080011
                    Nonlocal Pseudopotential Energy ::            0.825237479775
                                        Confinement ::            0.449957642846

 Orbital energies  State     L     Occupation   Energy[a.u.]          Energy[eV]

                       1     0          2.000      -0.366449           -9.971583

                       1     1          2.000      -0.122800           -3.341548


 Total Electron Density at R=0:                                         0.000021

 Guess for atomic kind: H

 Electronic structure
    Total number of core electrons                                          0.00
    Total number of valence electrons                                       1.00
    Total number of electrons                                               1.00
    Multiplicity                                                   not specified
    S      1.00


 *******************************************************************************
                  Iteration          Convergence                     Energy [au]
 *******************************************************************************
                          1        0.364523E-02                  -0.422484553466
                          2        0.146100E-03                  -0.422490428911
                          3        0.266755E-04                  -0.422490480125
                          4        0.362968E-08                  -0.422490480723

 Energy components [Hartree]           Total Energy ::           -0.422490480723
                                        Band Energy ::           -0.192735382727
                                     Kinetic Energy ::            0.477952444388
                                   Potential Energy ::           -0.900442925111
                                      Virial (-V/T) ::            1.883959242566
                                        Core Energy ::           -0.479166166213
                                          XC Energy ::           -0.248560768168
                                     Coulomb Energy ::            0.305236453657
                       Total Pseudopotential Energy ::           -0.975131101124
                       Local Pseudopotential Energy ::           -0.975131101124
                    Nonlocal Pseudopotential Energy ::            0.000000000000
                                        Confinement ::            0.180124905236

 Orbital energies  State     L     Occupation   Energy[a.u.]          Energy[eV]

                       1     0          1.000      -0.192735           -5.244596


 Total Electron Density at R=0:                                         0.249202
 Re-scaling the density matrix to get the right number of electrons
                  # Electrons              Trace(P)               Scaling factor
                            6                 6.000                        1.000

 Number of electrons:                                                          6
 Number of occupied orbitals:                                                  3
 Number of molecular orbitals:                                                 3

 Number of orbital functions:                                                 29
 Number of independent orbital functions:                                     29


 SCF WAVEFUNCTION OPTIMIZATION

  Step     Update method      Time    Convergence         Total energy    Change
  ------------------------------------------------------------------------------
     1 P_Mix/Diag. 0.40E+00   10.2     0.60821702        -4.8083027195 -4.81E+00
     2 P_Mix/Diag. 0.40E+00   14.4     0.34461908        -4.8913575799 -8.31E-02
     3 P_Mix/Diag. 0.40E+00   14.3     0.21495249        -4.9386207431 -4.73E-02
     4 P_Mix/Diag. 0.40E+00   14.2     0.13576049        -4.9671113953 -2.85E-02
     5 P_Mix/Diag. 0.40E+00   14.3     0.08417474        -4.9844924978 -1.74E-02
     6 DIIS/Diag.  0.32E-01   14.3     0.04807221        -4.9952672437 -1.08E-02
     7 P_Mix/Diag. 0.40E+00   14.2     0.03232142        -5.0117514869 -1.65E-02
     8 P_Mix/Diag. 0.40E+00   14.3     0.03691462        -5.0119003492 -1.49E-04
     9 DIIS/Diag.  0.14E-01   14.3     0.00525826        -5.0123420681 -4.42E-04
    10 DIIS/Diag.  0.49E-01   14.3     0.02894749        -5.0126814687 -3.39E-04
    11 DIIS/Diag.  0.17E-01   14.2     0.00896146        -5.0129872837 -3.06E-04
    12 P_Mix/Diag. 0.40E+00   14.2     0.02133236        -5.0124321631  5.55E-04
    13 P_Mix/Diag. 0.40E+00   14.2     0.01114913        -5.0123923750  3.98E-05
    14 DIIS/Diag.  0.63E-02   14.2     0.00477602        -5.0126462416 -2.54E-04
    15 DIIS/Diag.  0.11E-01   14.3     0.00319098        -5.0129965937 -3.50E-04
    16 DIIS/Diag.  0.89E-02   14.3     0.00411405        -5.0130071141 -1.05E-05
    17 DIIS/Diag.  0.17E-01   14.2     0.00439502        -5.0129848433  2.23E-05
    18 DIIS/Diag.  0.73E-02   14.7     0.00171557        -5.0130083324 -2.35E-05
    19 DIIS/Diag.  0.97E-03   14.7     0.00004991        -5.0130129102 -4.58E-06
    20 DIIS/Diag.  0.69E-03   14.3     0.00019847        -5.0130129595 -4.93E-08
    21 DIIS/Diag.  0.33E-03   14.3     0.00004989        -5.0130130044 -4.48E-08
    22 DIIS/Diag.  0.11E-04   14.3     0.00000508        -5.0130130136 -9.23E-09

  *** SCF run converged in    22 steps ***


  Electronic density on regular grids:         -6.0000000000        0.0000000000
  Core density on regular grids:                5.9999999992       -0.0000000008
  Total charge density on r-space grids:       -0.0000000008
  Total charge density g-space grids:          -0.0000000008

  Overlap energy of the core charge distribution:               0.00000001305829
  Self energy of the core charge distribution:                -13.03725908348804
  Core Hamiltonian energy:                                      3.05578085632600
  Hartree energy:                                               6.79354613270421
  Exchange-correlation energy:                                 -1.82508093218823

  Total energy:                                                -5.01301301358777

 MO| EIGENVALUES AND OCCUPATION NUMBERS
 MO|
 MO|  Index      Eigenvalue [a.u.]        Eigenvalue [eV]             Occupation
 MO|      1              -0.479298             -13.042355               2.000000
 MO|      2              -0.308104              -8.383946               2.000000
 MO|      3              -0.221499              -6.027303               2.000000
 MO| Sum:                                                               6.000000
 MO| E(Fermi):           -0.221499 a.u.         -6.027303 eV


 !-----------------------------------------------------------------------------!
                     Mulliken Population Analysis

 #  Atom  Element  Kind  Atomic population                           Net charge
       1     Si       1          3.761387                              0.238613
       2     H        2          1.119307                             -0.119307
       3     H        2          1.119306                             -0.119306
 # Total charge                              6.000000                  0.000000

 !-----------------------------------------------------------------------------!

 !-----------------------------------------------------------------------------!
                           Hirshfeld Charges

  #Atom  Element  Kind  Ref Charge     Population                    Net charge
      1       Si     1       4.000          4.875                        -0.875
      2       H      2       1.000          0.560                         0.440
      3       H      2       1.000          0.560                         0.440

  Total Charge                                                            0.005
 !-----------------------------------------------------------------------------!

 ENERGY| Total FORCE_EVAL ( QS ) energy [hartree]             -5.013013013587768

 -------------------------------------------------------------------------------
 -                                                                             -
 -                                DBCSR STATISTICS                             -
 -                                                                             -
 -------------------------------------------------------------------------------
 COUNTER                                    TOTAL       BLAS       SMM       ACC
 flops     6 x    17 x     3                13464     100.0%      0.0%      0.0%     
 flops    17 x     6 x     3                13464     100.0%      0.0%      0.0%     
 flops     6 x     6 x     3                14256     100.0%      0.0%      0.0%     
 flops    17 x    17 x     3                38148     100.0%      0.0%      0.0%     
 flops inhomo. stacks                           0       0.0%      0.0%      0.0%
 flops total                        79.332000E+03     100.0%      0.0%      0.0%
 flops max/rank                     38.148000E+03     100.0%      0.0%      0.0%
 matmuls inhomo. stacks                         0       0.0%      0.0%      0.0%
 matmuls total                                132     100.0%      0.0%      0.0%
 number of processed stacks                   132     100.0%      0.0%      0.0%
 average stack size                                     1.0       0.0       0.0
 marketing flops                   111.012000E+03
 -------------------------------------------------------------------------------
 # multiplications                             22
 max memory usage/rank               8.017408E+09
 # max total images/rank                        1
 # max 3D layers                                1
 # MPI messages exchanged                    2112
 MPI messages size (bytes):
  total size                        91.872000E+03
  min size                           0.000000E+00
  max size                         408.000000E+00
  average size                      43.500000E+00
 MPI breakdown and total messages size (bytes):
             size <=      128                1716                        0
       128 < size <=     8192                 396                    91872
      8192 < size <=    32768                   0                        0
     32768 < size <=   131072                   0                        0
    131072 < size <=  4194304                   0                        0
   4194304 < size <= 16777216                   0                        0
  16777216 < size                               0                        0
 -------------------------------------------------------------------------------
 -                                                                             -
 -                      DBCSR MESSAGE PASSING PERFORMANCE                      -
 -                                                                             -
 -------------------------------------------------------------------------------
 ROUTINE             CALLS      AVE VOLUME [Bytes]
 MP_Bcast                5                     12.
 MP_Allreduce          137                     11.
 MP_Alltoall           726                   1480.
 MP_ISend              352                    104.
 MP_IRecv              352                     52.
 -------------------------------------------------------------------------------

 -------------------------------------------------------------------------------
 -                                                                             -
 -                                GRID STATISTICS                              -
 -                                                                             -
 -------------------------------------------------------------------------------
 LP    KERNEL             BACKEND                              COUNT     PERCENT
 2     collocate ortho    CPU                                    253      36.99%
 2     integrate ortho    CPU                                    242      35.38%
 3     collocate ortho    CPU                                     92      13.45%
 3     integrate ortho    CPU                                     88      12.87%
 0     collocate general  CPU                                      6       0.88%
 0     integrate general  CPU                                      3       0.44%
 -------------------------------------------------------------------------------

 -------------------------------------------------------------------------------
 -                                                                             -
 -                          OFFLOAD MEMPOOL STATISTICS                         -
 -                                                                             -
 -------------------------------------------------------------------------------
 Memory consumption                Number of allocations  Used [MiB]  Size [MiB]
 Host                                                  6         362    18665692
 -------------------------------------------------------------------------------

 MEMORY| Estimated peak process memory [MiB]                                5583

 -------------------------------------------------------------------------------
 ----                             MULTIGRID INFO                            ----
 -------------------------------------------------------------------------------
 count for grid        1:          23840          cutoff [a.u.]          500.00
 count for grid        2:          24926          cutoff [a.u.]          166.67
 count for grid        3:          53927          cutoff [a.u.]           55.56
 count for grid        4:          47963          cutoff [a.u.]           18.52
 total gridlevel count  :         150656

 -------------------------------------------------------------------------------
 -                                                                             -
 -                         MESSAGE PASSING PERFORMANCE                         -
 -                                                                             -
 -------------------------------------------------------------------------------

 ROUTINE             CALLS      AVE VOLUME [Bytes]
 MP_Group                4
 MP_Bcast              106                 193647.
 MP_Allreduce          393                  17066.
 MP_Sync                26
 MP_Alltoall           285              331591749.
 MP_SendRecv           690                2783232.
 MP_ISendRecv          660                2783232.
 MP_Wait              1683
 MP_comm_split          22
 MP_ISend              744               18685322.
 MP_IRecv              744               18685121.
 -------------------------------------------------------------------------------


 -------------------------------------------------------------------------------
 -                                                                             -
 -                           R E F E R E N C E S                               -
 -                                                                             -
 -------------------------------------------------------------------------------
 
 CP2K version 2026.2, the CP2K developers group (2026).
 CP2K is freely available from https://www.cp2k.org/ .
 
 M. Iannuzzi, J. Wilhelm, F. Stein, A. Bussy, H. Elgabarty, D. Golze, A. Hehn, 
 M. Graml, S. Marek, B. Sertcan Gökmen, C. Schran, H. Forbert, R. Z. 
 Khaliullin, A. Kozhevnikov, M. Taillefumier, R. Meli, V. V. Rybkin, M. Brehm, 
 R. Schade, O. Schütt, J. V. Pototschnig, H. Mirhosseini, A. Knüpfer, D. Marx, 
 M. Krack, J. Hutter, T. D. Kühne.
 J. Phys. Chem. B 130, 1237-1310 (2026).
 The CP2K Program Package Made Simple.
 https://doi.org/10.1021/acs.jpcb.5c05851

 T. D. Kühne, M. Iannuzzi, M. Del Ben, V. V. Rybkin, P. Seewald, F. Stein, T. 
 Laino, R. Z. Khaliullin, O. Schütt, F. Schiffmann, D. Golze, J. Wilhelm, S. 
 Chulkov, M. H. Bani-Hashemian, V. Weber, U. Borstnik, M. Taillefumier, A. S. 
 Jakobovits, A. Lazzaro, H. Pabst, T. Müller, R. Schade, M. Guidon, S. 
 Andermatt, N. Holmberg, G. K. Schenter, A. Hehn, A. Bussy, F. Belleflamme, G. 
 Tabacchi, A. Glöß, M. Lass, I. Bethune, C. J. Mundy, C. Plessl, M. Watkins, 
 J. VandeVondele, M. Krack, J. Hutter.
 J. Chem. Phys. 152, 194103 (2020).
 CP2K: An electronic structure and molecular dynamics software package - 
 Quickstep: Efficient and accurate electronic structure calculations.
 https://doi.org/10.1063/5.0007045

 O. Schuett, P. Messmer, J. Hutter, J. VandeVondele.
 Electronic Structure Calculations on Graphics Processing Units, 173-190 (2016).
 GPU-Accelerated Sparse Matrix-Matrix Multiplication for Linear Scaling Density 
 Functional Theory.
 https://doi.org/10.1002/9781118670712.ch8

 U. Borstnik, J. VandeVondele, V. Weber, J. Hutter.
 Parallel Comput. 40, 47-58 (2014).
 Sparse matrix multiplication: The distributed block-compressed sparse row 
 library.
 https://doi.org/10.1016/j.parco.2014.03.012

 J. VandeVondele, J. Hutter.
 J. Chem. Phys. 127, 114105 (2007).
 Gaussian basis sets for accurate calculations on molecular systems in gas and 
 condensed phases.
 https://doi.org/10.1063/1.2770708

 J. VandeVondele, M. Krack, F. Mohamed, M. Parrinello, T. Chassaing, J. Hutter.
 Comput. Phys. Commun. 167, 103-128 (2005).
 QUICKSTEP: Fast and accurate density functional calculations using a mixed 
 Gaussian and plane waves approach.
 https://doi.org/10.1016/j.cpc.2004.12.014

 M. Krack.
 Theor. Chem. Acc. 114, 145-152 (2005).
 Pseudopotentials for H to Kr optimized for gradient-corrected 
 exchange-correlation functionals.
 https://doi.org/10.1007/s00214-005-0655-y

 M. Frigo, S. G. Johnson.
 Proc. IEEE 93, 216-231 (2005).
 The design and implementation of FFTW3.
 https://doi.org/10.1109/JPROC.2004.840301

 C. Hartwigsen, S. Goedecker, J. Hutter.
 Phys. Rev. B 58, 3641-3662 (1998).
 Relativistic separable dual-space Gaussian pseudopotentials from H to Rn.
 https://doi.org/10.1103/PhysRevB.58.3641

 G. Lippert, J. Hutter, M. Parrinello.
 Mol. Phys. 92, 477-487 (1997).
 A hybrid Gaussian and plane wave density functional scheme.
 https://doi.org/10.1080/002689797170220

 S. Goedecker, M. Teter, J. Hutter.
 Phys. Rev. B 54, 1703-1710 (1996).
 Separable dual-space Gaussian pseudopotentials.
 https://doi.org/10.1103/PhysRevB.54.1703


 -------------------------------------------------------------------------------
 -                                                                             -
 -                                T I M I N G                                  -
 -                                                                             -
 -------------------------------------------------------------------------------
 SUBROUTINE                       CALLS  ASD         SELF TIME        TOTAL TIME
                                MAXIMUM       AVERAGE  MAXIMUM  AVERAGE  MAXIMUM
 CP2K                                 1  1.0    0.048    0.054  328.642  328.642
 qs_energies                          1  2.0    0.000    0.000  324.333  324.333
 scf_env_do_scf                       1  3.0    0.000    0.000  315.834  315.834
 scf_env_do_scf_inner_loop           22  4.0    0.001    0.001  315.833  315.833
 qs_ks_update_qs_env                 22  5.0    0.000    0.000  206.876  206.898
 rebuild_ks_matrix                   22  6.0    0.000    0.000  206.874  206.896
 qs_ks_build_kohn_sham_matrix        22  7.0   71.234   71.243  206.874  206.896
 fft_wrap_pw1pw2                    226  9.2    0.009    0.011  180.919  181.546
 fft_wrap_pw1pw2_500                 91  9.7    5.089    5.447  161.741  167.127
 fft3d_ps                           226 11.2   80.314   82.444  128.147  133.000
 qs_rho_update_rho_low               23  5.0    0.000    0.000  113.915  113.915
 calculate_rho_elec                  23  6.0    1.427    1.455  113.915  113.915
 density_rs2pw                       23  7.0    0.003    0.003  106.456  106.661
 sum_up_and_integrate                22  8.0    0.000    0.000   60.979   61.000
 integrate_v_rspace                  22  9.0    0.000    0.001   60.979   61.000
 potential_pw2rs                     22 10.0    0.057    0.073   60.957   60.986
 pw_gather_p                        115 10.6   28.976   34.013   28.976   34.013
 pw_poisson_solve                    22  8.0    0.001    0.002   28.933   30.080
 yz_to_x                            115 11.6   17.637   19.490   25.669   27.635
 x_to_yz                            111 12.8   13.307   13.523   22.152   24.318
 mp_alltoall_z22v                   226 13.2   16.877   21.310   16.877   21.310
 fft_wrap_pw1pw2_170                 45 10.5    0.174    0.207   15.879   20.435
 pw_poisson_set                      23  8.9    0.003    0.003   18.122   19.269
 pw_scatter_p                       111 11.8   12.557   15.963   12.557   15.963
 pw_copy                            220 10.0   13.416   14.066   13.416   14.066
 transfer_pw2rs                      89 11.0    0.003    0.003   13.617   13.666
 transfer_rs2pw                      94  8.0    0.005    0.006   12.977   13.100
 pw_derive                           66 10.0   11.640   12.539   11.640   12.539
 transfer_pw2rs_500                  23 11.8    5.768    5.961    9.708    9.973
 transfer_rs2pw_500                  25  8.9    6.337    6.482    9.172    9.513
 mp_waitany                         744 11.4    6.235    6.878    6.235    6.878
 -------------------------------------------------------------------------------

 The number of warnings for this run is : 0
 
 -------------------------------------------------------------------------------
  **** **** ******  **  PROGRAM ENDED AT                 2026-08-13 12:36:58.276
 ***** ** ***  *** **   PROGRAM RAN ON            eb3791e2ef3243b6944400b65b9622
 **    ****   ******    PROGRAM RAN BY                                 <unknown>
 ***** **    ** ** **   PROGRAM PROCESS ID                                   811
  **** **  *******  **  PROGRAM STOPPED IN                    /tmp/cp2k_4rsksr28
