&GLOBAL
  PRINT_LEVEL MEDIUM
  PROJECT_NAME a725d64cf70c0fb4dbe91adbfeca7f971b363345
  RUN_TYPE ENERGY
&END GLOBAL
&FORCE_EVAL
  METHOD Quickstep
  &DFT
    BASIS_SET_FILE_NAME BASIS_MOLOPT_UZH
    POTENTIAL_FILE_NAME POTENTIAL_UZH
    CHARGE 0
    MULTIPLICITY 1
    UKS FALSE
    &MGRID
      CUTOFF 1000
      REL_CUTOFF 60
      NGRIDS 4
    &END MGRID
    &POISSON
      PERIODIC NONE
      POISSON_SOLVER ANALYTIC
    &END POISSON
    &QS
      EPS_DEFAULT 1e-10
    &END QS
    &SCF
      EPS_SCF 1e-05
      MAX_SCF 100
      SCF_GUESS ATOMIC
      &DIAGONALIZATION
      &END DIAGONALIZATION
      &MIXING
        METHOD DIRECT_P_MIXING
        ALPHA 0.4
        NMIXING 2
      &END MIXING
    &END SCF
    &XC
      &XC_FUNCTIONAL
        &GAUXC
          FUNCTIONAL PBE
          MODEL aug-s0-funv2-cpu.fun
          GRID FINE
          PRUNING_SCHEME ROBUST
          RADIAL_QUADRATURE MURAKNOWLES
        &END GAUXC
      &END XC_FUNCTIONAL
    &END XC
    &PRINT
      &MO
        ENERGIES T
        OCCNUMS  T
        &EACH
          QS_SCF 0
        &END
      &END
    &END
  &END DFT
  &SUBSYS
    &CELL
      ABC 39.0000 39.0000 32.0000
      ALPHA_BETA_GAMMA 90.0000 90.0000 90.0000
      PERIODIC NONE
    &END CELL
    &TOPOLOGY
      &CENTER_COORDINATES
      &END
    &END TOPOLOGY
    &COORD
      B        1.1095700016        0.3638499996        0.5239700011
      N       -0.0100999980        1.2351999999        0.6301100006
      B        0.0022199989        2.5323700009        0.0534200002
      N        1.3294100008        3.0208000001       -0.2642200017
      B        2.5031099990        2.1815299976       -0.2672400001
      N        2.4078799984        0.7759699992        0.1009000021
      B       -1.1497199995        0.3896999994        0.5267599980
      N       -2.4383600025        0.8269099998        0.1106299993
      B       -2.5077899999        2.2356000021       -0.2510000013
      N       -1.3158499988        3.0500600020       -0.2533800023
      N        0.6719099995       -0.9961600015        0.5768599986
      N       -0.7431499999       -0.9846299974        0.5663899999
      B        1.4525599996       -2.0442799980        0.0336100026
      N        2.8314699987       -1.6597699993       -0.2179100000
      B        3.3127000022       -0.3041799985       -0.2421300017
      B       -1.5348700010       -2.0365900001        0.0436400010
      B       -0.6372300006       -3.4419800004       -0.3370399982
      N        0.7827700004       -3.2869500010       -0.2989299996
      B       -3.3646100005       -0.2399099975       -0.2294699979
      N       -2.9028700012       -1.6010099978       -0.2075900019
      H       -4.4755399981        0.0125899990       -0.5781900008
      H       -3.5646400022       -2.2963600024       -0.5128099977
      H       -1.0520200008       -4.5097899982       -0.6815200005
      H        1.3462900024       -4.0665400009       -0.6070800020
      H        3.4853000026       -2.3650599999       -0.5180299975
      H        4.4277399975       -0.0782099999       -0.5939499988
      H        3.5394100023        2.6373699992       -0.6379300015
      H        1.4563899990        3.9501100024       -0.6322000018
      H       -1.4253899990        3.9829200002       -0.6180600005
      H       -3.5365900010        2.7164499981       -0.6106299979
    &END COORD
    &KIND B
      BASIS_SET TZVP-MOLOPT-SCAN-GTH-q3
      POTENTIAL GTH-SCAN-q3
    &END KIND
    &KIND H
      BASIS_SET TZVP-MOLOPT-SCAN-GTH-q1
      POTENTIAL GTH-SCAN-q1
    &END KIND
    &KIND N
      BASIS_SET TZVP-MOLOPT-SCAN-GTH-q5
      POTENTIAL GTH-SCAN-q5
    &END KIND
  &END SUBSYS
&END FORCE_EVAL

================================================================================
=== END OF CP2K INPUT / START OF CP2K OUTPUT ===
================================================================================

 DBCSR| CPU Multiplication driver                                           BLAS (U)
 DBCSR| Multrec recursion limit                                              512 (U)
 DBCSR| Multiplication stack size                                           1000 (D)
 DBCSR| Maximum elements for images                                    UNLIMITED (U)
 DBCSR| Multiplicative factor virtual images                                   1 (U)
 DBCSR| Use multiplication densification                                       T (D)
 DBCSR| Multiplication size stacks                                             3 (U)
 DBCSR| Use memory pool for CPU allocation                                     F (U)
 DBCSR| Number of 3D layers                                               SINGLE (U)
 DBCSR| Use MPI memory allocation                                              F (U)
 DBCSR| Use RMA algorithm                                                      F (U)
 DBCSR| Use Communication thread                                               T (U)
 DBCSR| Communication thread load                                             87 (D)
 DBCSR| MPI: My process id                                                     0
 DBCSR| MPI: Number of processes                                              16
 DBCSR| OMP: Current number of threads                                         1
 DBCSR| OMP: Max number of threads                                             1
 DBCSR| Split modifier for TAS multiplication algorithm                  1.0E+00 (U)


  **** **** ******  **  PROGRAM STARTED AT               2026-08-13 13:48:23.145
 ***** ** ***  *** **   PROGRAM STARTED ON        eb3791e2ef3243b6944400b65b9622
 **    ****   ******    PROGRAM STARTED BY                             <unknown>
 ***** **    ** ** **   PROGRAM PROCESS ID                                  1784
  **** **  *******  **  PROGRAM STARTED IN                    /tmp/cp2k_5osix4pc

 CP2K| version string:                                       CP2K version 2026.2
 CP2K| source code revision number:                                  git:c92cc08
 CP2K| cp2kflags: omp libint fftw3 libxc gauxc gauxc_mpi gauxc_onedft gauxc_host
 CP2K|             parallel scalapack mpi_f08 spglib sirius libtorch hdf5
 CP2K| is freely available from                            https://www.cp2k.org/
 CP2K| Program compiled at                                   2026-08-13 02:05:42
 CP2K| Program compiled on                                                      
 CP2K| Program compiled for                                               x86_64
 CP2K| Data directory path                             /opt/cp2k/share/cp2k/data
 CP2K| Input file name                                            cp2k_input.inp

 GLOBAL| Force Environment number                                              1
 GLOBAL| Basis set file name                                    BASIS_MOLOPT_UZH
 GLOBAL| Potential file name                                       POTENTIAL_UZH
 GLOBAL| MM Potential file name                                     MM_POTENTIAL
 GLOBAL| Coordinate file name                                      __STD_INPUT__
 GLOBAL| Method name                                                        CP2K
 GLOBAL| Project name                   a725d64cf70c0fb4dbe91adbfeca7f971b363345
 GLOBAL| Run type                                                         ENERGY
 GLOBAL| FFT library                                                       FFTW3
 GLOBAL| Diagonalization library                                       ScaLAPACK
 GLOBAL| Cholesky decomposition library                                ScaLAPACK
 GLOBAL| DGEMM library                                                      BLAS
 GLOBAL| Direct generalized diagonalization requested                          F
 GLOBAL| Orthonormality check for eigenvectors                          DISABLED
 GLOBAL| Matrix multiplication library                                 ScaLAPACK
 GLOBAL| All-to-all communication in single precision                          F
 GLOBAL| FFTs using library dependent lengths                                  F
 GLOBAL| Grid backend                                                       AUTO
 GLOBAL| Global print level                                               MEDIUM
 GLOBAL| MPI I/O enabled                                                       T
 GLOBAL| Total number of message passing processes                            16
 GLOBAL| Number of distributed systems (nodes)                                 1
 GLOBAL| Number of threads for this process                                    1
 GLOBAL| This output is from process                                           0
 GLOBAL| OpenMP stack size per thread (OMP_STACKSIZE)                        16M
 GLOBAL| CPU model name                          AMD EPYC 9V74 80-Core Processor
 GLOBAL| CPUID                                                              1002

 MEMORY| system memory details [Kb]
 MEMORY|                        rank 0           min           max       average
 MEMORY| MemTotal            263924008     263924008     263924008     263924008
 MEMORY| MemFree             235512276     235512276     235512276     235512276
 MEMORY| Buffers                412496        412496        412496        412496
 MEMORY| Cached               19467744      19467744      19467744      19467744
 MEMORY| Slab                  2078604       2078604       2078604       2078604
 MEMORY| SReclaimable          1684000       1684000       1684000       1684000
 MEMORY| MemLikelyFree       257076516     257076516     257076516     257076516


 *** Fundamental physical constants (SI units) ***

 *** Literature: B. J. Mohr and B. N. Taylor,
 ***             CODATA recommended values of the fundamental physical
 ***             constants: 2006, Web Version 5.1
 ***             http://physics.nist.gov/constants

 Speed of light in vacuum [m/s]                             2.99792458000000E+08
 Magnetic constant or permeability of vacuum [N/A**2]       1.25663706143592E-06
 Electric constant or permittivity of vacuum [F/m]          8.85418781762039E-12
 Planck constant (h) [J*s]                                  6.62606896000000E-34
 Planck constant (h-bar) [J*s]                              1.05457162825177E-34
 Elementary charge [C]                                      1.60217648700000E-19
 Electron mass [kg]                                         9.10938215000000E-31
 Electron g factor [ ]                                     -2.00231930436220E+00
 Proton mass [kg]                                           1.67262163700000E-27
 Fine-structure constant                                    7.29735253760000E-03
 Rydberg constant [1/m]                                     1.09737315685270E+07
 Avogadro constant [1/mol]                                  6.02214179000000E+23
 Boltzmann constant [J/K]                                   1.38065040000000E-23
 Atomic mass unit [kg]                                      1.66053878200000E-27
 Bohr radius [m]                                            5.29177208590000E-11

 *** Conversion factors ***

 [u] -> [a.u.]                                              1.82288848426455E+03
 [Angstrom] -> [Bohr] = [a.u.]                              1.88972613288564E+00
 [a.u.] = [Bohr] -> [Angstrom]                              5.29177208590000E-01
 [a.u.] -> [s]                                              2.41888432650478E-17
 [a.u.] -> [fs]                                             2.41888432650478E-02
 [a.u.] -> [J]                                              4.35974393937059E-18
 [a.u.] -> [N]                                              8.23872205491840E-08
 [a.u.] -> [K]                                              3.15774647902944E+05
 [a.u.] -> [kJ/mol]                                         2.62549961709828E+03
 [a.u.] -> [kcal/mol]                                       6.27509468713739E+02
 [a.u.] -> [Pa]                                             2.94210107994716E+13
 [a.u.] -> [bar]                                            2.94210107994716E+08
 [a.u.] -> [atm]                                            2.90362800883016E+08
 [a.u.] -> [eV]                                             2.72113838565563E+01
 [a.u.] -> [Hz]                                             6.57968392072181E+15
 [a.u.] -> [1/cm] (wave numbers)                            2.19474631370540E+05
 [a.u./Bohr**2] -> [1/cm]                                   5.14048714338585E+03
 

 CELL| Volume [angstrom^3]:                                         48672.000000
 CELL| Vector a [angstrom]:      39.000     0.000     0.000   |a| =    39.000000
 CELL| Vector b [angstrom]:       0.000    39.000     0.000   |b| =    39.000000
 CELL| Vector c [angstrom]:       0.000     0.000    32.000   |c| =    32.000000
 CELL| Angle (b,c), alpha [degree]:                                    90.000000
 CELL| Angle (a,c), beta  [degree]:                                    90.000000
 CELL| Angle (a,b), gamma [degree]:                                    90.000000
 CELL| Numerically orthorhombic:                                             YES
 CELL| Periodicity                                                          NONE

 CELL_REF| Volume [angstrom^3]:                                     48672.000000
 CELL_REF| Vector a [angstrom    39.000     0.000     0.000   |a| =    39.000000
 CELL_REF| Vector b [angstrom     0.000    39.000     0.000   |b| =    39.000000
 CELL_REF| Vector c [angstrom     0.000     0.000    32.000   |c| =    32.000000
 CELL_REF| Angle (b,c), alpha [degree]:                                90.000000
 CELL_REF| Angle (a,c), beta  [degree]:                                90.000000
 CELL_REF| Angle (a,b), gamma [degree]:                                90.000000
 CELL_REF| Numerically orthorhombic:                                         YES
 CELL_REF| Periodicity                                                      NONE

 GENERATE|  Preliminary Number of Bonds generated:                             0
 GENERATE|  Achieved consistency in connectivity generation.

 *******************************************************************************
 *******************************************************************************
 **                                                                           **
 **     #####                         ##              ##                      **
 **    ##   ##            ##          ##              ##                      **
 **   ##     ##                       ##            ######                    **
 **   ##     ##  ##   ##  ##   #####  ##  ##   ####   ##    #####    #####    **
 **   ##     ##  ##   ##  ##  ##      ## ##   ##      ##   ##   ##  ##   ##   **
 **   ##  ## ##  ##   ##  ##  ##      ####     ###    ##   ######   ######    **
 **    ##  ###   ##   ##  ##  ##      ## ##      ##   ##   ##       ##        **
 **     #######   #####   ##   #####  ##  ##  ####    ##    #####   ##        **
 **           ##                                                    ##        **
 **                                                                           **
 **                                                ... make the atoms dance   **
 **                                                                           **
 **            Copyright (C) by CP2K developers group (2000-2026)             **
 **                      J. Chem. Phys. 152, 194103 (2020)                    **
 **                                                                           **
 *******************************************************************************

 DFT| Spin restricted Kohn-Sham (RKS) calculation                            RKS
 DFT| Multiplicity                                                             1
 DFT| Number of spin states                                                    1
 DFT| Charge                                                                   0
 DFT| Self-interaction correction (SIC)                                       NO
 DFT| Cutoffs: density                                              1.000000E-10
 DFT|          gradient                                             1.000000E-10
 DFT|          tau                                                  1.000000E-10
 DFT|          cutoff_smoothing_range                               0.000000E+00
 DFT| XC density smoothing                                                  NONE
 DFT| XC derivatives                                                          PW

 FUNCTIONAL| GAUXC:
 FUNCTIONAL| Functional computed by GauXC Skala model aug-s0-funv2-cpu.fun      


 QS| Method:                                                                 GPW
 QS| Density plane wave grid type                        NON-SPHERICAL FULLSPACE
 QS| Number of grid levels:                                                    4
 QS| Density cutoff [a.u.]:                                                500.0
 QS| Multi grid cutoff [a.u.]: 1) grid level                               500.0
 QS|                           2) grid level                               166.7
 QS|                           3) grid level                                55.6
 QS|                           4) grid level                                18.5
 QS| Grid level progression factor:                                          3.0
 QS| Relative density cutoff [a.u.]:                                        30.0
 QS| Interaction thresholds: eps_pgf_orb:                                1.0E-05
 QS|                         eps_filter_matrix:                          0.0E+00
 QS|                         eps_core_charge:                            1.0E-12
 QS|                         eps_rho_gspace:                             1.0E-10
 QS|                         eps_rho_rspace:                             1.0E-10
 QS|                         eps_gvg_rspace:                             1.0E-05
 QS|                         eps_ppl:                                    1.0E-02
 QS|                         eps_ppnl:                                   1.0E-07


 ATOMIC KIND INFORMATION

  1. Atomic kind: B                                     Number of atoms:      10

     Orbital Basis Set                                   TZVP-MOLOPT-SCAN-GTH-q3

       Number of orbital shell sets:                                           1
       Number of orbital shells:                                               7
       Number of primitive Cartesian functions:                                5
       Number of Cartesian basis functions:                                   18
       Number of spherical basis functions:                                   17
       Norm type:                                                              2

       Normalised Cartesian orbitals:

                        Set   Shell   Orbital            Exponent    Coefficient

                          1       1    2s                3.659887      -0.244714
                                                         1.279727      -0.176607
                                                         0.546167       0.172142
                                                         0.223705       0.137695
                                                         0.081716       0.028822

                          1       2    3s                3.659887       0.360876
                                                         1.279727       0.163052
                                                         0.546167      -0.173138
                                                         0.223705      -0.046078
                                                         0.081716       0.134791

                          1       3    4s                3.659887      -1.179765
                                                         1.279727      -0.344696
                                                         0.546167       0.126891
                                                         0.223705      -0.122153
                                                         0.081716       0.017480

                          1       4    3px               3.659887      -0.435152
                                                         1.279727      -0.280457
                                                         0.546167      -0.224938
                                                         0.223705      -0.088445
                                                         0.081716      -0.017232
                          1       4    3py               3.659887      -0.435152
                                                         1.279727      -0.280457
                                                         0.546167      -0.224938
                                                         0.223705      -0.088445
                                                         0.081716      -0.017232
                          1       4    3pz               3.659887      -0.435152
                                                         1.279727      -0.280457
                                                         0.546167      -0.224938
                                                         0.223705      -0.088445
                                                         0.081716      -0.017232

                          1       5    4px               3.659887       0.679943
                                                         1.279727       0.601476
                                                         0.546167       0.270188
                                                         0.223705       0.041334
                                                         0.081716      -0.059015
                          1       5    4py               3.659887       0.679943
                                                         1.279727       0.601476
                                                         0.546167       0.270188
                                                         0.223705       0.041334
                                                         0.081716      -0.059015
                          1       5    4pz               3.659887       0.679943
                                                         1.279727       0.601476
                                                         0.546167       0.270188
                                                         0.223705       0.041334
                                                         0.081716      -0.059015

                          1       6    5px               3.659887       1.058691
                                                         1.279727       1.620514
                                                         0.546167       0.222847
                                                         0.223705      -0.172432
                                                         0.081716       0.017020
                          1       6    5py               3.659887       1.058691
                                                         1.279727       1.620514
                                                         0.546167       0.222847
                                                         0.223705      -0.172432
                                                         0.081716       0.017020
                          1       6    5pz               3.659887       1.058691
                                                         1.279727       1.620514
                                                         0.546167       0.222847
                                                         0.223705      -0.172432
                                                         0.081716       0.017020

                          1       7    4dx2              3.659887      -1.323917
                                                         1.279727       0.762645
                                                         0.546167       0.174489
                                                         0.223705       0.065210
                                                         0.081716       0.001874
                          1       7    4dxy              3.659887      -2.293092
                                                         1.279727       1.320939
                                                         0.546167       0.302224
                                                         0.223705       0.112947
                                                         0.081716       0.003247
                          1       7    4dxz              3.659887      -2.293092
                                                         1.279727       1.320939
                                                         0.546167       0.302224
                                                         0.223705       0.112947
                                                         0.081716       0.003247
                          1       7    4dy2              3.659887      -1.323917
                                                         1.279727       0.762645
                                                         0.546167       0.174489
                                                         0.223705       0.065210
                                                         0.081716       0.001874
                          1       7    4dyz              3.659887      -2.293092
                                                         1.279727       1.320939
                                                         0.546167       0.302224
                                                         0.223705       0.112947
                                                         0.081716       0.003247
                          1       7    4dz2              3.659887      -1.323917
                                                         1.279727       0.762645
                                                         0.546167       0.174489
                                                         0.223705       0.065210
                                                         0.081716       0.001874

       Atomic covalent radius [Angstrom]:                                  0.820

       Atomic van der Waals radius [Angstrom]:                             1.920

     GTH Potential information for                                   GTH-SCAN-q3

       Description:                       Goedecker-Teter-Hutter pseudopotential
                                           Goedecker et al., PRB 54, 1703 (1996)
                                          Hartwigsen et al., PRB 58, 3641 (1998)
                                                      Krack, TCA 114, 145 (2005)

       Gaussian exponent of the core charge distribution:               2.962771
       Electronic configuration (s p d ...):                       2   1   0   0

       Parameters of the local part of the GTH pseudopotential:

                          rloc        C1          C2          C3          C4
                        0.410805   -5.916795    0.866086

       Parameters of the non-local part of the GTH pseudopotential:

                   l      r(l)      h(i,j,l)

                   0    0.373210    6.278067

  2. Atomic kind: N                                     Number of atoms:      10

     Orbital Basis Set                                   TZVP-MOLOPT-SCAN-GTH-q5

       Number of orbital shell sets:                                           1
       Number of orbital shells:                                               7
       Number of primitive Cartesian functions:                                5
       Number of Cartesian basis functions:                                   18
       Number of spherical basis functions:                                   17
       Norm type:                                                              2

       Normalised Cartesian orbitals:

                        Set   Shell   Orbital            Exponent    Coefficient

                          1       1    2s                7.741240      -0.372569
                                                         2.739304      -0.219396
                                                         1.077565       0.278149
                                                         0.425476       0.232020
                                                         0.142415       0.034612

                          1       2    3s                7.741240       0.271946
                                                         2.739304       0.236866
                                                         1.077565      -0.248170
                                                         0.425476      -0.061031
                                                         0.142415       0.200154

                          1       3    4s                7.741240      -1.413950
                                                         2.739304      -2.318830
                                                         1.077565       1.978599
                                                         0.425476      -0.833623
                                                         0.142415       0.105972

                          1       4    3px               7.741240      -1.168229
                                                         2.739304      -0.942518
                                                         1.077565      -0.541668
                                                         0.425476      -0.212751
                                                         0.142415      -0.025014
                          1       4    3py               7.741240      -1.168229
                                                         2.739304      -0.942518
                                                         1.077565      -0.541668
                                                         0.425476      -0.212751
                                                         0.142415      -0.025014
                          1       4    3pz               7.741240      -1.168229
                                                         2.739304      -0.942518
                                                         1.077565      -0.541668
                                                         0.425476      -0.212751
                                                         0.142415      -0.025014

                          1       5    4px               7.741240       0.928701
                                                         2.739304       0.844788
                                                         1.077565       0.526172
                                                         0.425476       0.069589
                                                         0.142415      -0.132325
                          1       5    4py               7.741240       0.928701
                                                         2.739304       0.844788
                                                         1.077565       0.526172
                                                         0.425476       0.069589
                                                         0.142415      -0.132325
                          1       5    4pz               7.741240       0.928701
                                                         2.739304       0.844788
                                                         1.077565       0.526172
                                                         0.425476       0.069589
                                                         0.142415      -0.132325

                          1       6    5px               7.741240       1.578027
                                                         2.739304       2.303105
                                                         1.077565       1.543896
                                                         0.425476      -0.542746
                                                         0.142415       0.030053
                          1       6    5py               7.741240       1.578027
                                                         2.739304       2.303105
                                                         1.077565       1.543896
                                                         0.425476      -0.542746
                                                         0.142415       0.030053
                          1       6    5pz               7.741240       1.578027
                                                         2.739304       2.303105
                                                         1.077565       1.543896
                                                         0.425476      -0.542746
                                                         0.142415       0.030053

                          1       7    4dx2              7.741240      -0.128620
                                                         2.739304       0.958133
                                                         1.077565       0.733739
                                                         0.425476       0.247613
                                                         0.142415      -0.003923
                          1       7    4dxy              7.741240      -0.222777
                                                         2.739304       1.659536
                                                         1.077565       1.270873
                                                         0.425476       0.428878
                                                         0.142415      -0.006794
                          1       7    4dxz              7.741240      -0.222777
                                                         2.739304       1.659536
                                                         1.077565       1.270873
                                                         0.425476       0.428878
                                                         0.142415      -0.006794
                          1       7    4dy2              7.741240      -0.128620
                                                         2.739304       0.958133
                                                         1.077565       0.733739
                                                         0.425476       0.247613
                                                         0.142415      -0.003923
                          1       7    4dyz              7.741240      -0.222777
                                                         2.739304       1.659536
                                                         1.077565       1.270873
                                                         0.425476       0.428878
                                                         0.142415      -0.006794
                          1       7    4dz2              7.741240      -0.128620
                                                         2.739304       0.958133
                                                         1.077565       0.733739
                                                         0.425476       0.247613
                                                         0.142415      -0.003923

       Atomic covalent radius [Angstrom]:                                  0.750

       Atomic van der Waals radius [Angstrom]:                             1.550

     GTH Potential information for                                   GTH-SCAN-q5

       Description:                       Goedecker-Teter-Hutter pseudopotential
                                           Goedecker et al., PRB 54, 1703 (1996)
                                          Hartwigsen et al., PRB 58, 3641 (1998)
                                                      Krack, TCA 114, 145 (2005)

       Gaussian exponent of the core charge distribution:               6.165682
       Electronic configuration (s p d ...):                       2   3   0   0

       Parameters of the local part of the GTH pseudopotential:

                          rloc        C1          C2          C3          C4
                        0.284770  -12.418435    1.850749

       Parameters of the non-local part of the GTH pseudopotential:

                   l      r(l)      h(i,j,l)

                   0    0.256275   13.645095

  3. Atomic kind: H                                     Number of atoms:      10

     Orbital Basis Set                                   TZVP-MOLOPT-SCAN-GTH-q1

       Number of orbital shell sets:                                           1
       Number of orbital shells:                                               4
       Number of primitive Cartesian functions:                                5
       Number of Cartesian basis functions:                                    6
       Number of spherical basis functions:                                    6
       Norm type:                                                              2

       Normalised Cartesian orbitals:

                        Set   Shell   Orbital            Exponent    Coefficient

                          1       1    2s                9.168765       0.095357
                                                         2.161194       0.125778
                                                         0.619868       0.162183
                                                         0.161316       0.074849
                                                         0.412255       0.090962

                          1       2    3s                9.168765      -0.435739
                                                         2.161194      -0.868971
                                                         0.619868      -0.406683
                                                         0.161316      -0.142964
                                                         0.412255       0.978336

                          1       3    4s                9.168765       0.385896
                                                         2.161194       1.113624
                                                         0.619868       0.043366
                                                         0.161316      -0.067676
                                                         0.412255       0.053421

                          1       4    3px               9.168765      -1.788640
                                                         2.161194       0.906920
                                                         0.619868       0.273605
                                                         0.161316       0.091389
                                                         0.412255       0.008094
                          1       4    3py               9.168765      -1.788640
                                                         2.161194       0.906920
                                                         0.619868       0.273605
                                                         0.161316       0.091389
                                                         0.412255       0.008094
                          1       4    3pz               9.168765      -1.788640
                                                         2.161194       0.906920
                                                         0.619868       0.273605
                                                         0.161316       0.091389
                                                         0.412255       0.008094

       Atomic covalent radius [Angstrom]:                                  0.320

       Atomic van der Waals radius [Angstrom]:                             1.090

     GTH Potential information for                                   GTH-SCAN-q1

       Description:                       Goedecker-Teter-Hutter pseudopotential
                                           Goedecker et al., PRB 54, 1703 (1996)
                                          Hartwigsen et al., PRB 58, 3641 (1998)
                                                      Krack, TCA 114, 145 (2005)

       Gaussian exponent of the core charge distribution:              12.429142
       Electronic configuration (s p d ...):                       1   0   0   0

       Parameters of the local part of the GTH pseudopotential:

                          rloc        C1          C2          C3          C4
                        0.200569   -4.177243    0.723816


 MOLECULE KIND INFORMATION


 All atoms are their own molecule, skipping detailed information


 TOTAL NUMBERS AND MAXIMUM NUMBERS

  Total number of            - Atomic kinds:                                   3
                             - Atoms:                                         30
                             - Shell sets:                                    30
                             - Shells:                                       180
                             - Primitive Cartesian functions:                150
                             - Cartesian basis functions:                    420
                             - Spherical basis functions:                    400

  Maximum angular momentum of- Orbital basis functions:                        2
                             - Local part of the GTH pseudopotential:          2
                             - Non-local part of the GTH pseudopotential:      0


 MODULE QUICKSTEP: ATOMIC COORDINATES IN ANGSTROM

   Atom Kind Element         X             Y             Z       Z(eff)     Mass
      1    1 B     5     20.633470     20.127285     16.549675   3.0000  10.8110
      2    2 N     7     19.513800     20.998635     16.655815   5.0000  14.0067
      3    1 B     5     19.526120     22.295805     16.079125   3.0000  10.8110
      4    2 N     7     20.853310     22.784235     15.761485   5.0000  14.0067
      5    1 B     5     22.027010     21.944965     15.758465   3.0000  10.8110
      6    2 N     7     21.931780     20.539405     16.126605   5.0000  14.0067
      7    1 B     5     18.374180     20.153135     16.552465   3.0000  10.8110
      8    2 N     7     17.085540     20.590345     16.136335   5.0000  14.0067
      9    1 B     5     17.016110     21.999035     15.774705   3.0000  10.8110
     10    2 N     7     18.208050     22.813495     15.772325   5.0000  14.0067
     11    2 N     7     20.195810     18.767275     16.602565   5.0000  14.0067
     12    2 N     7     18.780750     18.778805     16.592095   5.0000  14.0067
     13    1 B     5     20.976460     17.719155     16.059315   3.0000  10.8110
     14    2 N     7     22.355370     18.103665     15.807795   5.0000  14.0067
     15    1 B     5     22.836600     19.459255     15.783575   3.0000  10.8110
     16    1 B     5     17.989030     17.726845     16.069345   3.0000  10.8110
     17    1 B     5     18.886670     16.321455     15.688665   3.0000  10.8110
     18    2 N     7     20.306670     16.476485     15.726775   5.0000  14.0067
     19    1 B     5     16.159290     19.523525     15.796235   3.0000  10.8110
     20    2 N     7     16.621030     18.162425     15.818115   5.0000  14.0067
     21    3 H     1     15.048360     19.776025     15.447515   1.0000   1.0079
     22    3 H     1     15.959260     17.467075     15.512895   1.0000   1.0079
     23    3 H     1     18.471880     15.253645     15.344185   1.0000   1.0079
     24    3 H     1     20.870190     15.696895     15.418625   1.0000   1.0079
     25    3 H     1     23.009200     17.398375     15.507675   1.0000   1.0079
     26    3 H     1     23.951640     19.685225     15.431755   1.0000   1.0079
     27    3 H     1     23.063310     22.400805     15.387775   1.0000   1.0079
     28    3 H     1     20.980290     23.713545     15.393505   1.0000   1.0079
     29    3 H     1     18.098510     23.746355     15.407645   1.0000   1.0079
     30    3 H     1     15.987310     22.479885     15.415075   1.0000   1.0079



 SCF PARAMETERS         Density guess:                                    ATOMIC
                        --------------------------------------------------------
                        max_scf:                                             100
                        max_scf_history:                                       0
                        max_diis:                                              4
                        --------------------------------------------------------
                        eps_scf:                                        1.00E-05
                        eps_scf_history:                                0.00E+00
                        eps_diis:                                       1.00E-01
                        eps_eigval:                                     1.00E-05
                        --------------------------------------------------------
                        level_shift [a.u.]:                             0.000000
                        --------------------------------------------------------
                        Mixing method:                           DIRECT_P_MIXING
                        --------------------------------------------------------
                        No outer SCF

 PW_GRID| Information for grid number                                          1
 PW_GRID| Grid distributed over                                    16 processors
 PW_GRID| Real space group dimensions                                    16    1
 PW_GRID| the grid is blocked:                                                NO
 PW_GRID| Cutoff [a.u.]                                                    500.0
 PW_GRID| spherical cutoff:                                                   NO
 PW_GRID|   Bounds   1           -375     374                Points:         750
 PW_GRID|   Bounds   2           -375     374                Points:         750
 PW_GRID|   Bounds   3           -312     312                Points:         625
 PW_GRID| Volume element (a.u.^3)  0.9343E-03     Volume (a.u.^3)    328454.9408
 PW_GRID| Grid span                                                    FULLSPACE
 PW_GRID|   Distribution                         Average         Max         Min
 PW_GRID|   G-Vectors                         21972656.2    21972750    21972000
 PW_GRID|   G-Rays                               29296.9       29297       29296
 PW_GRID|   Real Space Points                 21972656.2    22031250    21562500

 PW_GRID| Information for grid number                                          2
 PW_GRID| Number of the reference grid                                         1
 PW_GRID| Grid distributed over                                    16 processors
 PW_GRID| Real space group dimensions                                    16    1
 PW_GRID| the grid is blocked:                                                NO
 PW_GRID| Cutoff [a.u.]                                                    166.7
 PW_GRID| spherical cutoff:                                                   NO
 PW_GRID|   Bounds   1           -216     215                Points:         432
 PW_GRID|   Bounds   2           -216     215                Points:         432
 PW_GRID|   Bounds   3           -180     179                Points:         360
 PW_GRID| Volume element (a.u.^3)  0.4889E-02     Volume (a.u.^3)    328454.9408
 PW_GRID| Grid span                                                    FULLSPACE
 PW_GRID|   Distribution                         Average         Max         Min
 PW_GRID|   G-Vectors                          4199040.0     4200768     4198176
 PW_GRID|   G-Rays                                9720.0        9724        9718
 PW_GRID|   Real Space Points                  4199040.0     4199040     4199040

 PW_GRID| Information for grid number                                          3
 PW_GRID| Number of the reference grid                                         1
 PW_GRID| Grid distributed over                                    16 processors
 PW_GRID| Real space group dimensions                                    16    1
 PW_GRID| the grid is blocked:                                                NO
 PW_GRID| Cutoff [a.u.]                                                     55.6
 PW_GRID| spherical cutoff:                                                   NO
 PW_GRID|   Bounds   1           -128     127                Points:         256
 PW_GRID|   Bounds   2           -128     127                Points:         256
 PW_GRID|   Bounds   3           -108     107                Points:         216
 PW_GRID| Volume element (a.u.^3)  0.2320E-01     Volume (a.u.^3)    328454.9408
 PW_GRID| Grid span                                                    FULLSPACE
 PW_GRID|   Distribution                         Average         Max         Min
 PW_GRID|   G-Vectors                           884736.0      886784      883968
 PW_GRID|   G-Rays                                3456.0        3464        3453
 PW_GRID|   Real Space Points                   884736.0      884736      884736

 PW_GRID| Information for grid number                                          4
 PW_GRID| Number of the reference grid                                         1
 PW_GRID| Grid distributed over                                    16 processors
 PW_GRID| Real space group dimensions                                    16    1
 PW_GRID| the grid is blocked:                                                NO
 PW_GRID| Cutoff [a.u.]                                                     18.5
 PW_GRID| spherical cutoff:                                                   NO
 PW_GRID|   Bounds   1            -72      71                Points:         144
 PW_GRID|   Bounds   2            -72      71                Points:         144
 PW_GRID|   Bounds   3            -60      59                Points:         120
 PW_GRID| Volume element (a.u.^3)  0.1320         Volume (a.u.^3)    328454.9408
 PW_GRID| Grid span                                                    FULLSPACE
 PW_GRID|   Distribution                         Average         Max         Min
 PW_GRID|   G-Vectors                           155520.0      155952      154944
 PW_GRID|   G-Rays                                1080.0        1083        1076
 PW_GRID|   Real Space Points                   155520.0      155520      155520

 POISSON| Solver                                                        ANALYTIC
 POISSON| Periodicity                                                       NONE

 RS_GRID| Information for grid number                                          1
 RS_GRID|   Bounds   1           -375     374                Points:         750
 RS_GRID|   Bounds   2           -375     374                Points:         750
 RS_GRID|   Bounds   3           -312     312                Points:         625
 RS_GRID| Real space distribution over                                  4 groups
 RS_GRID| Real space distribution along direction                              1
 RS_GRID| Border size                                                         32
 RS_GRID| Real space distribution over                                  4 groups
 RS_GRID| Real space distribution along direction                              2
 RS_GRID| Border size                                                         32
 RS_GRID|   Distribution                         Average         Max         Min
 RS_GRID|   Planes                                 251.5         252         251
 RS_GRID|   Distribution                         Average         Max         Min
 RS_GRID|   Planes                                 251.5         252         251

 RS_GRID| Information for grid number                                          2
 RS_GRID|   Bounds   1           -216     215                Points:         432
 RS_GRID|   Bounds   2           -216     215                Points:         432
 RS_GRID|   Bounds   3           -180     179                Points:         360
 RS_GRID| Real space distribution over                                  4 groups
 RS_GRID| Real space distribution along direction                              1
 RS_GRID| Border size                                                         25
 RS_GRID| Real space distribution over                                  4 groups
 RS_GRID| Real space distribution along direction                              2
 RS_GRID| Border size                                                         25
 RS_GRID|   Distribution                         Average         Max         Min
 RS_GRID|   Planes                                 158.0         158         158
 RS_GRID|   Distribution                         Average         Max         Min
 RS_GRID|   Planes                                 158.0         158         158

 RS_GRID| Information for grid number                                          3
 RS_GRID|   Bounds   1           -128     127                Points:         256
 RS_GRID|   Bounds   2           -128     127                Points:         256
 RS_GRID|   Bounds   3           -108     107                Points:         216
 RS_GRID| Real space fully replicated
 RS_GRID| Group size                                                           1

 RS_GRID| Information for grid number                                          4
 RS_GRID|   Bounds   1            -72      71                Points:         144
 RS_GRID|   Bounds   2            -72      71                Points:         144
 RS_GRID|   Bounds   3            -60      59                Points:         120
 RS_GRID| Real space fully replicated
 RS_GRID| Group size                                                           1

 Extrapolation method: initial_guess

 Atomic guess: The first density matrix is obtained in terms of atomic orbitals
               and electronic configurations assigned to each atomic kind

 Guess for atomic kind: B

 Electronic structure
    Total number of core electrons                                          2.00
    Total number of valence electrons                                       3.00
    Total number of electrons                                               5.00
    Multiplicity                                                   not specified
    S   [  2.00] 2.00
    P      1.00


 *******************************************************************************
                  Iteration          Convergence                     Energy [au]
 *******************************************************************************
                          1        0.316646E-01                  -2.529384606790
                          2        0.137591E-01                  -2.530500543548
                          3        0.258896E-03                  -2.530854993129
                          4        0.287113E-05                  -2.530855115511
                          5        0.856246E-08                  -2.530855115527

 Energy components [Hartree]           Total Energy ::           -2.530855115527
                                        Band Energy ::           -0.763279797743
                                     Kinetic Energy ::            1.380412322607
                                   Potential Energy ::           -3.911267438134
                                      Virial (-V/T) ::            2.833405189217
                                        Core Energy ::           -3.752414334987
                                          XC Energy ::           -0.784170852583
                                     Coulomb Energy ::            2.005730072042
                       Total Pseudopotential Energy ::           -5.162535765060
                       Local Pseudopotential Energy ::           -5.563464475473
                    Nonlocal Pseudopotential Energy ::            0.400928710413
                                        Confinement ::            0.297091074664

 Orbital energies  State     L     Occupation   Energy[a.u.]          Energy[eV]

                       1     0          2.000      -0.324628           -8.833569

                       1     1          1.000      -0.114024           -3.102761


 Total Electron Density at R=0:                                         0.000031

 Guess for atomic kind: N

 Electronic structure
    Total number of core electrons                                          2.00
    Total number of valence electrons                                       5.00
    Total number of electrons                                               7.00
    Multiplicity                                                   not specified
    S   [  2.00] 2.00
    P      3.00


 *******************************************************************************
                  Iteration          Convergence                     Energy [au]
 *******************************************************************************
                          1        0.346146                      -9.510631084718
                          2        0.293961                      -9.519323476596
                          3        0.462882E-02                  -9.543943533173
                          4        0.376937E-03                  -9.543951832803
                          5        0.269242E-05                  -9.543951869815
                          6        0.125879E-05                  -9.543951869817
                          7        0.339213E-08                  -9.543951869817

 Energy components [Hartree]           Total Energy ::           -9.543951869817
                                        Band Energy ::           -2.045283632630
                                     Kinetic Energy ::            6.768365898222
                                   Potential Energy ::          -16.312317768040
                                      Virial (-V/T) ::            2.410082139963
                                        Core Energy ::          -15.546390569991
                                          XC Energy ::           -2.165368606550
                                     Coulomb Energy ::            8.167807306724
                       Total Pseudopotential Energy ::          -22.351839014438
                       Local Pseudopotential Energy ::          -23.300988197283
                    Nonlocal Pseudopotential Energy ::            0.949149182846
                                        Confinement ::            0.370825462242

 Orbital energies  State     L     Occupation   Energy[a.u.]          Energy[eV]

                       1     0          2.000      -0.656585          -17.866573

                       1     1          3.000      -0.244038           -6.640617


 Total Electron Density at R=0:                                         0.000014

 Guess for atomic kind: H

 Electronic structure
    Total number of core electrons                                          0.00
    Total number of valence electrons                                       1.00
    Total number of electrons                                               1.00
    Multiplicity                                                   not specified
    S      1.00


 *******************************************************************************
                  Iteration          Convergence                     Energy [au]
 *******************************************************************************
                          1        0.364523E-02                  -0.422484553466
                          2        0.146100E-03                  -0.422490428911
                          3        0.266755E-04                  -0.422490480125
                          4        0.362968E-08                  -0.422490480723

 Energy components [Hartree]           Total Energy ::           -0.422490480723
                                        Band Energy ::           -0.192735382727
                                     Kinetic Energy ::            0.477952444388
                                   Potential Energy ::           -0.900442925111
                                      Virial (-V/T) ::            1.883959242566
                                        Core Energy ::           -0.479166166213
                                          XC Energy ::           -0.248560768168
                                     Coulomb Energy ::            0.305236453657
                       Total Pseudopotential Energy ::           -0.975131101124
                       Local Pseudopotential Energy ::           -0.975131101124
                    Nonlocal Pseudopotential Energy ::            0.000000000000
                                        Confinement ::            0.180124905236

 Orbital energies  State     L     Occupation   Energy[a.u.]          Energy[eV]

                       1     0          1.000      -0.192735           -5.244596


 Total Electron Density at R=0:                                         0.249202
 Re-scaling the density matrix to get the right number of electrons
                  # Electrons              Trace(P)               Scaling factor
                           90                90.000                        1.000

 Number of electrons:                                                         90
 Number of occupied orbitals:                                                 45
 Number of molecular orbitals:                                                45

 Number of orbital functions:                                                400
 Number of independent orbital functions:                                    400


 SCF WAVEFUNCTION OPTIMIZATION

  Step     Update method      Time    Convergence         Total energy    Change
  ------------------------------------------------------------------------------
     1 P_Mix/Diag. 0.40E+00   44.8     1.21382777      -133.5091791626 -1.34E+02
     2 P_Mix/Diag. 0.40E+00   53.3     0.65821439      -133.8241559120 -3.15E-01
     3 P_Mix/Diag. 0.40E+00   54.5     0.43688854      -133.9982976430 -1.74E-01
     4 P_Mix/Diag. 0.40E+00   52.7     0.27482253      -134.0976192706 -9.93E-02
     5 P_Mix/Diag. 0.40E+00   53.1     0.17395301      -134.1589111054 -6.13E-02
     6 P_Mix/Diag. 0.40E+00   53.2     0.11388595      -134.1975378838 -3.86E-02
     7 P_Mix/Diag. 0.40E+00   52.5     0.07531321      -134.2216827594 -2.41E-02
     8 DIIS/Diag.  0.19E-02   51.6     0.05604120      -134.2366406123 -1.50E-02
     9 DIIS/Diag.  0.44E-02   54.0     0.00113183      -134.2601679324 -2.35E-02
    10 DIIS/Diag.  0.29E-02   53.5     0.00203776      -134.2601821942 -1.43E-05
    11 DIIS/Diag.  0.28E-02   52.8     0.00267587      -134.2602045678 -2.24E-05
    12 DIIS/Diag.  0.22E-02   53.6     0.00294484      -134.2602191013 -1.45E-05
    13 DIIS/Diag.  0.62E-03   52.9     0.00068871      -134.2602313249 -1.22E-05
    14 DIIS/Diag.  0.47E-03   53.0     0.00031925      -134.2602317150 -3.90E-07
    15 DIIS/Diag.  0.34E-03   51.7     0.00049077      -134.2602319769 -2.62E-07
    16 DIIS/Diag.  0.20E-03   52.3     0.00033060      -134.2602320981 -1.21E-07
    17 DIIS/Diag.  0.12E-03   53.6     0.00015688      -134.2602321588 -6.06E-08
    18 DIIS/Diag.  0.14E-03   53.3     0.00011934      -134.2602321746 -1.58E-08
    19 DIIS/Diag.  0.75E-04   52.8     0.00007138      -134.2602321821 -7.45E-09
    20 DIIS/Diag.  0.54E-04   53.2     0.00005788      -134.2602321862 -4.14E-09
    21 DIIS/Diag.  0.37E-04   53.2     0.00001910      -134.2602322026 -1.64E-08
    22 DIIS/Diag.  0.28E-04   53.1     0.00003329      -134.2602321889  1.36E-08
    23 DIIS/Diag.  0.20E-04   53.2     0.00001875      -134.2602322037 -1.48E-08
    24 DIIS/Diag.  0.17E-04   52.1     0.00002357      -134.2602321922  1.15E-08
    25 DIIS/Diag.  0.13E-04   52.4     0.00000959      -134.2602322049 -1.26E-08

  *** SCF run converged in    25 steps ***


  Electronic density on regular grids:        -89.9999999997        0.0000000003
  Core density on regular grids:               89.9999999916       -0.0000000084
  Total charge density on r-space grids:       -0.0000000081
  Total charge density g-space grids:          -0.0000000081

  Overlap energy of the core charge distribution:               0.00001340103340
  Self energy of the core charge distribution:               -323.51787966618468
  Core Hamiltonian energy:                                     99.71433299204386
  Hartree energy:                                             129.65974010954375
  Exchange-correlation energy:                                -40.11643904132301

  Total energy:                                              -134.26023220488668

 MO| EIGENVALUES AND OCCUPATION NUMBERS
 MO|
 MO|  Index      Eigenvalue [a.u.]        Eigenvalue [eV]             Occupation
 MO|      1              -0.960994             -26.149965               2.000000
 MO|      2              -0.872617             -23.745105               2.000000
 MO|      3              -0.858340             -23.356625               2.000000
 MO|      4              -0.843313             -22.947725               2.000000
 MO|      5              -0.833684             -22.685706               2.000000
 MO|      6              -0.827123             -22.507162               2.000000
 MO|      7              -0.813347             -22.132290               2.000000
 MO|      8              -0.802929             -21.848798               2.000000
 MO|      9              -0.798880             -21.738625               2.000000
 MO|     10              -0.726859             -19.778838               2.000000
 MO|     11              -0.569758             -15.503890               2.000000
 MO|     12              -0.538582             -14.655565               2.000000
 MO|     13              -0.528750             -14.388030               2.000000
 MO|     14              -0.507126             -13.799610               2.000000
 MO|     15              -0.502409             -13.671257               2.000000
 MO|     16              -0.493479             -13.428240               2.000000
 MO|     17              -0.477190             -12.985011               2.000000
 MO|     18              -0.470276             -12.796863               2.000000
 MO|     19              -0.459266             -12.497267               2.000000
 MO|     20              -0.453203             -12.332269               2.000000
 MO|     21              -0.443416             -12.065960               2.000000
 MO|     22              -0.433455             -11.794910               2.000000
 MO|     23              -0.421086             -11.458341               2.000000
 MO|     24              -0.415475             -11.305640               2.000000
 MO|     25              -0.407813             -11.097151               2.000000
 MO|     26              -0.396077             -10.777794               2.000000
 MO|     27              -0.390211             -10.618186               2.000000
 MO|     28              -0.382959             -10.420857               2.000000
 MO|     29              -0.367943             -10.012238               2.000000
 MO|     30              -0.359065              -9.770661               2.000000
 MO|     31              -0.353053              -9.607066               2.000000
 MO|     32              -0.343624              -9.350492               2.000000
 MO|     33              -0.338819              -9.219733               2.000000
 MO|     34              -0.325205              -8.849291               2.000000
 MO|     35              -0.319749              -8.700803               2.000000
 MO|     36              -0.317397              -8.636814               2.000000
 MO|     37              -0.310948              -8.461329               2.000000
 MO|     38              -0.300305              -8.171715               2.000000
 MO|     39              -0.293956              -7.998950               2.000000
 MO|     40              -0.289724              -7.883790               2.000000
 MO|     41              -0.273764              -7.449506               2.000000
 MO|     42              -0.260388              -7.085510               2.000000
 MO|     43              -0.258057              -7.022093               2.000000
 MO|     44              -0.248859              -6.771786               2.000000
 MO|     45              -0.214557              -5.838389               2.000000
 MO| Sum:                                                              90.000000
 MO| E(Fermi):           -0.214557 a.u.         -5.838389 eV


 !-----------------------------------------------------------------------------!
                     Mulliken Population Analysis

 #  Atom  Element  Kind  Atomic population                           Net charge
       1     B        1          2.345558                              0.654442
       2     N        2          5.573744                             -0.573744
       3     B        1          2.374300                              0.625700
       4     N        2          5.495274                             -0.495274
       5     B        1          2.645140                              0.354860
       6     N        2          5.544495                             -0.544495
       7     B        1          2.348685                              0.651315
       8     N        2          5.535172                             -0.535172
       9     B        1          2.651315                              0.348685
      10     N        2          5.494076                             -0.494076
      11     N        2          5.326698                             -0.326698
      12     N        2          5.290500                             -0.290500
      13     B        1          2.347226                              0.652774
      14     N        2          5.487930                             -0.487930
      15     B        1          2.656168                              0.343832
      16     B        1          2.670108                              0.329892
      17     B        1          2.942441                              0.057559
      18     N        2          5.452715                             -0.452715
      19     B        1          2.671192                              0.328808
      20     N        2          5.449221                             -0.449221
      21     H        3          1.060626                             -0.060626
      22     H        3          0.874628                              0.125372
      23     H        3          1.062884                             -0.062884
      24     H        3          0.877296                              0.122704
      25     H        3          0.876981                              0.123019
      26     H        3          1.062240                             -0.062240
      27     H        3          1.065508                             -0.065508
      28     H        3          0.876848                              0.123152
      29     H        3          0.876698                              0.123302
      30     H        3          1.064334                             -0.064334
 # Total charge                             90.000000                 -0.000000

 !-----------------------------------------------------------------------------!

 !-----------------------------------------------------------------------------!
                           Hirshfeld Charges

  #Atom  Element  Kind  Ref Charge     Population                    Net charge
      1       B      1       3.000          2.591                         0.409
      2       N      2       5.000          5.421                        -0.421
      3       B      1       3.000          2.561                         0.439
      4       N      2       5.000          5.755                        -0.755
      5       B      1       3.000          3.140                        -0.140
      6       N      2       5.000          5.411                        -0.411
      7       B      1       3.000          2.592                         0.408
      8       N      2       5.000          5.409                        -0.409
      9       B      1       3.000          3.140                        -0.140
     10       N      2       5.000          5.754                        -0.754
     11       N      2       5.000          5.267                        -0.267
     12       N      2       5.000          5.255                        -0.255
     13       B      1       3.000          2.575                         0.425
     14       N      2       5.000          5.753                        -0.753
     15       B      1       3.000          3.152                        -0.152
     16       B      1       3.000          2.749                         0.251
     17       B      1       3.000          3.326                        -0.326
     18       N      2       5.000          5.727                        -0.727
     19       B      1       3.000          3.153                        -0.153
     20       N      2       5.000          5.738                        -0.738
     21       H      3       1.000          0.610                         0.390
     22       H      3       1.000          0.485                         0.515
     23       H      3       1.000          0.611                         0.389
     24       H      3       1.000          0.487                         0.513
     25       H      3       1.000          0.485                         0.515
     26       H      3       1.000          0.610                         0.390
     27       H      3       1.000          0.609                         0.391
     28       H      3       1.000          0.485                         0.515
     29       H      3       1.000          0.485                         0.515
     30       H      3       1.000          0.609                         0.391

  Total Charge                                                            0.056
 !-----------------------------------------------------------------------------!

 ENERGY| Total FORCE_EVAL ( QS ) energy [hartree]           -134.260232204886677

 -------------------------------------------------------------------------------
 -                                                                             -
 -                                DBCSR STATISTICS                             -
 -                                                                             -
 -------------------------------------------------------------------------------
 COUNTER                                    TOTAL       BLAS       SMM       ACC
 flops     6 x     6 x    13              1287000     100.0%      0.0%      0.0%     
 flops     6 x     6 x    32              3168000     100.0%      0.0%      0.0%     
 flops     6 x    17 x    13              6630000     100.0%      0.0%      0.0%     
 flops    17 x     6 x    13              6630000     100.0%      0.0%      0.0%     
 flops     6 x    17 x    32             16320000     100.0%      0.0%      0.0%     
 flops    17 x     6 x    32             16320000     100.0%      0.0%      0.0%     
 flops    17 x    17 x    13             39448500     100.0%      0.0%      0.0%     
 flops    17 x    17 x    32             97104000     100.0%      0.0%      0.0%     
 flops inhomo. stacks                           0       0.0%      0.0%      0.0%
 flops total                       186.907500E+06     100.0%      0.0%      0.0%
 flops max/rank                     13.749750E+06     100.0%      0.0%      0.0%
 matmuls inhomo. stacks                         0       0.0%      0.0%      0.0%
 matmuls total                              23250     100.0%      0.0%      0.0%
 number of processed stacks                  3100     100.0%      0.0%      0.0%
 average stack size                                     7.5       0.0       0.0
 marketing flops                   360.000000E+06
 -------------------------------------------------------------------------------
 # multiplications                             25
 max memory usage/rank              13.597389E+09
 # max total images/rank                        1
 # max 3D layers                                1
 # MPI messages exchanged                    2400
 MPI messages size (bytes):
  total size                        21.600000E+06
  min size                           0.000000E+00
  max size                          26.368000E+03
  average size                       9.000000E+03
 MPI breakdown and total messages size (bytes):
             size <=      128                1200                        0
       128 < size <=     8192                   0                        0
      8192 < size <=    32768                1200                 21600000
     32768 < size <=   131072                   0                        0
    131072 < size <=  4194304                   0                        0
   4194304 < size <= 16777216                   0                        0
  16777216 < size                               0                        0
 -------------------------------------------------------------------------------
 -                                                                             -
 -                      DBCSR MESSAGE PASSING PERFORMANCE                      -
 -                                                                             -
 -------------------------------------------------------------------------------
 ROUTINE             CALLS      AVE VOLUME [Bytes]
 MP_Bcast                9                     12.
 MP_Allreduce          160                     12.
 MP_Alltoall           825                  33214.
 MP_ISend              400                   4468.
 MP_IRecv              400                   1353.
 -------------------------------------------------------------------------------

 -------------------------------------------------------------------------------
 -                                                                             -
 -                                GRID STATISTICS                              -
 -                                                                             -
 -------------------------------------------------------------------------------
 LP    KERNEL             BACKEND                              COUNT     PERCENT
 4     collocate ortho    CPU                                   8476      30.62%
 4     integrate ortho    CPU                                   8150      29.44%
 3     collocate ortho    CPU                                   4472      16.16%
 3     integrate ortho    CPU                                   4300      15.53%
 2     collocate ortho    CPU                                   1118       4.04%
 2     integrate ortho    CPU                                   1075       3.88%
 0     collocate general  CPU                                     60       0.22%
 0     integrate general  CPU                                     30       0.11%
 -------------------------------------------------------------------------------

 -------------------------------------------------------------------------------
 -                                                                             -
 -                          OFFLOAD MEMPOOL STATISTICS                         -
 -                                                                             -
 -------------------------------------------------------------------------------
 Memory consumption                Number of allocations  Used [MiB]  Size [MiB]
 Host                                                  6         499    22070014
 -------------------------------------------------------------------------------

 MEMORY| Estimated peak process memory [MiB]                               10620

 -------------------------------------------------------------------------------
 ----                             MULTIGRID INFO                            ----
 -------------------------------------------------------------------------------
 count for grid        1:         133768          cutoff [a.u.]          500.00
 count for grid        2:         167490          cutoff [a.u.]          166.67
 count for grid        3:         160435          cutoff [a.u.]           55.56
 count for grid        4:          69500          cutoff [a.u.]           18.52
 total gridlevel count  :         531193

 -------------------------------------------------------------------------------
 -                                                                             -
 -                         MESSAGE PASSING PERFORMANCE                         -
 -                                                                             -
 -------------------------------------------------------------------------------

 ROUTINE             CALLS      AVE VOLUME [Bytes]
 MP_Group                4
 MP_Bcast              142                 217335.
 MP_Allreduce          454                  88946.
 MP_Sync                29
 MP_Alltoall           321              505166748.
 MP_SendRecv           780                4161024.
 MP_ISendRecv          750                4161024.
 MP_Wait              1905
 MP_comm_split          25
 MP_ISend              840               24762586.
 MP_IRecv              840               24761467.
 -------------------------------------------------------------------------------


 -------------------------------------------------------------------------------
 -                                                                             -
 -                           R E F E R E N C E S                               -
 -                                                                             -
 -------------------------------------------------------------------------------
 
 CP2K version 2026.2, the CP2K developers group (2026).
 CP2K is freely available from https://www.cp2k.org/ .
 
 M. Iannuzzi, J. Wilhelm, F. Stein, A. Bussy, H. Elgabarty, D. Golze, A. Hehn, 
 M. Graml, S. Marek, B. Sertcan Gökmen, C. Schran, H. Forbert, R. Z. 
 Khaliullin, A. Kozhevnikov, M. Taillefumier, R. Meli, V. V. Rybkin, M. Brehm, 
 R. Schade, O. Schütt, J. V. Pototschnig, H. Mirhosseini, A. Knüpfer, D. Marx, 
 M. Krack, J. Hutter, T. D. Kühne.
 J. Phys. Chem. B 130, 1237-1310 (2026).
 The CP2K Program Package Made Simple.
 https://doi.org/10.1021/acs.jpcb.5c05851

 T. D. Kühne, M. Iannuzzi, M. Del Ben, V. V. Rybkin, P. Seewald, F. Stein, T. 
 Laino, R. Z. Khaliullin, O. Schütt, F. Schiffmann, D. Golze, J. Wilhelm, S. 
 Chulkov, M. H. Bani-Hashemian, V. Weber, U. Borstnik, M. Taillefumier, A. S. 
 Jakobovits, A. Lazzaro, H. Pabst, T. Müller, R. Schade, M. Guidon, S. 
 Andermatt, N. Holmberg, G. K. Schenter, A. Hehn, A. Bussy, F. Belleflamme, G. 
 Tabacchi, A. Glöß, M. Lass, I. Bethune, C. J. Mundy, C. Plessl, M. Watkins, 
 J. VandeVondele, M. Krack, J. Hutter.
 J. Chem. Phys. 152, 194103 (2020).
 CP2K: An electronic structure and molecular dynamics software package - 
 Quickstep: Efficient and accurate electronic structure calculations.
 https://doi.org/10.1063/5.0007045

 O. Schuett, P. Messmer, J. Hutter, J. VandeVondele.
 Electronic Structure Calculations on Graphics Processing Units, 173-190 (2016).
 GPU-Accelerated Sparse Matrix-Matrix Multiplication for Linear Scaling Density 
 Functional Theory.
 https://doi.org/10.1002/9781118670712.ch8

 U. Borstnik, J. VandeVondele, V. Weber, J. Hutter.
 Parallel Comput. 40, 47-58 (2014).
 Sparse matrix multiplication: The distributed block-compressed sparse row 
 library.
 https://doi.org/10.1016/j.parco.2014.03.012

 J. VandeVondele, J. Hutter.
 J. Chem. Phys. 127, 114105 (2007).
 Gaussian basis sets for accurate calculations on molecular systems in gas and 
 condensed phases.
 https://doi.org/10.1063/1.2770708

 J. VandeVondele, M. Krack, F. Mohamed, M. Parrinello, T. Chassaing, J. Hutter.
 Comput. Phys. Commun. 167, 103-128 (2005).
 QUICKSTEP: Fast and accurate density functional calculations using a mixed 
 Gaussian and plane waves approach.
 https://doi.org/10.1016/j.cpc.2004.12.014

 M. Krack.
 Theor. Chem. Acc. 114, 145-152 (2005).
 Pseudopotentials for H to Kr optimized for gradient-corrected 
 exchange-correlation functionals.
 https://doi.org/10.1007/s00214-005-0655-y

 M. Frigo, S. G. Johnson.
 Proc. IEEE 93, 216-231 (2005).
 The design and implementation of FFTW3.
 https://doi.org/10.1109/JPROC.2004.840301

 C. Hartwigsen, S. Goedecker, J. Hutter.
 Phys. Rev. B 58, 3641-3662 (1998).
 Relativistic separable dual-space Gaussian pseudopotentials from H to Rn.
 https://doi.org/10.1103/PhysRevB.58.3641

 G. Lippert, J. Hutter, M. Parrinello.
 Mol. Phys. 92, 477-487 (1997).
 A hybrid Gaussian and plane wave density functional scheme.
 https://doi.org/10.1080/002689797170220

 S. Goedecker, M. Teter, J. Hutter.
 Phys. Rev. B 54, 1703-1710 (1996).
 Separable dual-space Gaussian pseudopotentials.
 https://doi.org/10.1103/PhysRevB.54.1703


 -------------------------------------------------------------------------------
 -                                                                             -
 -                                T I M I N G                                  -
 -                                                                             -
 -------------------------------------------------------------------------------
 SUBROUTINE                       CALLS  ASD         SELF TIME        TOTAL TIME
                                MAXIMUM       AVERAGE  MAXIMUM  AVERAGE  MAXIMUM
 CP2K                                 1  1.0    0.067    0.073 1342.266 1342.267
 qs_energies                          1  2.0    0.000    0.000 1335.402 1335.402
 scf_env_do_scf                       1  3.0    0.000    0.000 1323.138 1323.138
 scf_env_do_scf_inner_loop           25  4.0    0.001    0.002 1323.138 1323.138
 qs_ks_update_qs_env                 25  5.0    0.000    0.000 1154.250 1154.260
 rebuild_ks_matrix                   25  6.0    0.000    0.000 1154.248 1154.257
 qs_ks_build_kohn_sham_matrix        25  7.0  938.727  938.827 1154.248 1154.257
 fft_wrap_pw1pw2                    256  9.2    0.012    0.016  275.328  277.151
 fft_wrap_pw1pw2_500                103  9.7    8.819    9.117  244.936  250.619
 fft3d_ps                           256 11.2   96.833  100.093  177.203  184.460
 qs_rho_update_rho_low               26  5.0    0.000    0.000  175.388  175.389
 calculate_rho_elec                  26  6.0    2.454    2.496  175.388  175.389
 density_rs2pw                       26  7.0    0.003    0.004  163.134  164.112
 sum_up_and_integrate                25  8.0    0.000    0.000  104.983  104.993
 integrate_v_rspace                  25  9.0    0.001    0.001  104.983  104.992
 potential_pw2rs                     25 10.0    0.129    0.154  104.462  104.502
 pw_gather_p                        130 10.6   54.240   58.950   54.240   58.950
 pw_poisson_solve                    25  8.0    0.002    0.002   50.308   51.531
 yz_to_x                            130 11.6   29.783   32.221   43.624   48.222
 x_to_yz                            126 12.8   22.939   23.678   36.733   42.081
 mp_alltoall_z22v                   256 13.2   27.634   39.138   27.634   39.138
 pw_poisson_set                      26  8.9    0.003    0.004   31.530   32.754
 pw_scatter_p                       126 11.8   24.506   31.307   24.506   31.307
 fft_wrap_pw1pw2_170                 51 10.5    0.298    0.326   24.220   29.027
 -------------------------------------------------------------------------------

 The number of warnings for this run is : 0
 
 -------------------------------------------------------------------------------
  **** **** ******  **  PROGRAM ENDED AT                 2026-08-13 14:10:46.953
 ***** ** ***  *** **   PROGRAM RAN ON            eb3791e2ef3243b6944400b65b9622
 **    ****   ******    PROGRAM RAN BY                                 <unknown>
 ***** **    ** ** **   PROGRAM PROCESS ID                                  1784
  **** **  *******  **  PROGRAM STOPPED IN                    /tmp/cp2k_5osix4pc
