 DBCSR| CPU Multiplication driver                                           XSMM (U)
 DBCSR| Multrec recursion limit                                              512 (U)
 DBCSR| Multiplication stack size                                           1000 (D)
 DBCSR| Maximum elements for images                                    UNLIMITED (U)
 DBCSR| Multiplicative factor virtual images                                   1 (U)
 DBCSR| Use multiplication densification                                       T (D)
 DBCSR| Multiplication size stacks                                             3 (U)
 DBCSR| Use memory pool for CPU allocation                                     F (U)
 DBCSR| Number of 3D layers                                               SINGLE (U)
 DBCSR| Use MPI memory allocation                                              F (U)
 DBCSR| Use RMA algorithm                                                      F (U)
 DBCSR| Use Communication thread                                               T (U)
 DBCSR| Communication thread load                                             87 (D)
 DBCSR| MPI: My process id                                                     0
 DBCSR| MPI: Number of processes                                               1
 DBCSR| OMP: Current number of threads                                         1
 DBCSR| OMP: Max number of threads                                             1
 DBCSR| Split modifier for TAS multiplication algorithm                  1.0E+00 (U)


  **** **** ******  **  PROGRAM STARTED AT               2026-05-30 14:35:12.255
 ***** ** ***  *** **   PROGRAM STARTED ON                            spark-c86c
 **    ****   ******    PROGRAM STARTED BY                              kuehne88
 ***** **    ** ** **   PROGRAM PROCESS ID                                133520
  **** **  *******  **  PROGRAM STARTED IN /home/kuehne88/molecular-skala-final-
                                           20260530-prhead/skala-molopt-bench/ru
                                           ns/NH3_GAPW_AE_skala_force_minus

 CP2K| version string:                 CP2K version 2026.1 (Development Version)
 CP2K| source code revision number:                                   362771334d
 CP2K| cp2kflags: omp libint fftw3 libxc gauxc gauxc_mpi gauxc_onedft gauxc_host
 CP2K|             gauxc_device gauxc_cuda parallel scalapack xsmm spglib libtor
 CP2K|            rch
 CP2K| is freely available from                            https://www.cp2k.org/
 CP2K| Program compiled at                                   2026-05-29 22:13:32
 CP2K| Program compiled on                                            spark-c86c
 CP2K| Program compiled for                                              aarch64
 CP2K| Data directory path        /home/kuehne88/cp2k-periodic-skala-verify/data
 CP2K| Input file name                                                 input.inp

 GLOBAL| Force Environment number                                              1
 GLOBAL| Basis set file name                                    BASIS_MOLOPT_UZH
 GLOBAL| Potential file name                                       POTENTIAL_UZH
 GLOBAL| MM Potential file name                                     MM_POTENTIAL
 GLOBAL| Coordinate file name                                      __STD_INPUT__
 GLOBAL| Method name                                                        CP2K
 GLOBAL| Project name                                          NH3_GAPW_AE_skala
 GLOBAL| Run type                                                         ENERGY
 GLOBAL| FFT library                                                       FFTW3
 GLOBAL| Diagonalization library                                       ScaLAPACK
 GLOBAL| Cholesky decomposition library                                ScaLAPACK
 GLOBAL| DGEMM library                                                      BLAS
 GLOBAL| Direct generalized diagonalization requested                          F
 GLOBAL| Orthonormality check for eigenvectors                          DISABLED
 GLOBAL| Matrix multiplication library                                 ScaLAPACK
 GLOBAL| All-to-all communication in single precision                          F
 GLOBAL| FFTs using library dependent lengths                                  F
 GLOBAL| Grid backend                                                       AUTO
 GLOBAL| Global print level                                                  LOW
 GLOBAL| MPI I/O enabled                                                       T
 GLOBAL| Total number of message passing processes                             1
 GLOBAL| Number of distributed systems (nodes)                                 1
 GLOBAL| Number of threads for this process                                    1
 GLOBAL| This output is from process                                           0
 GLOBAL| OpenMP stack size per thread (OMP_STACKSIZE)                       512M
 GLOBAL| CPU model name                                                  UNKNOWN
 GLOBAL| CPUID                                                              2200
 GLOBAL| Compiled for CPUID                                                 2000

 *** HINT in environment.F:970 :: The compiler target flags (arm_arch64)   ***
 *** used to build this binary cannot exploit all extensions of this CPU   ***
 *** model (arm_sve256). Consider compiler target flags as part of FCFLAGS ***
 *** and CFLAGS (ARCH file).                                               ***


 MEMORY| system memory details [Kb]
 MEMORY|                        rank 0           min           max       average
 MEMORY| MemTotal            125508532     125508532     125508532     125508532
 MEMORY| MemFree              50207548      50207548      50207548      50207548
 MEMORY| Buffers               1404652       1404652       1404652       1404652
 MEMORY| Cached               62384208      62384208      62384208      62384208
 MEMORY| Slab                  3474864       3474864       3474864       3474864
 MEMORY| SReclaimable          2619800       2619800       2619800       2619800
 MEMORY| MemLikelyFree       116616208     116616208     116616208     116616208


 GENERATE|  Preliminary Number of Bonds generated:                             0
 GENERATE|  Achieved consistency in connectivity generation.

 *******************************************************************************
 *******************************************************************************
 **                                                                           **
 **     #####                         ##              ##                      **
 **    ##   ##            ##          ##              ##                      **
 **   ##     ##                       ##            ######                    **
 **   ##     ##  ##   ##  ##   #####  ##  ##   ####   ##    #####    #####    **
 **   ##     ##  ##   ##  ##  ##      ## ##   ##      ##   ##   ##  ##   ##   **
 **   ##  ## ##  ##   ##  ##  ##      ####     ###    ##   ######   ######    **
 **    ##  ###   ##   ##  ##  ##      ## ##      ##   ##   ##       ##        **
 **     #######   #####   ##   #####  ##  ##  ####    ##    #####   ##        **
 **           ##                                                    ##        **
 **                                                                           **
 **                                                ... make the atoms dance   **
 **                                                                           **
 **            Copyright (C) by CP2K developers group (2000-2026)             **
 **                      J. Chem. Phys. 152, 194103 (2020)                    **
 **                                                                           **
 *******************************************************************************


 TOTAL NUMBERS AND MAXIMUM NUMBERS

  Total number of            - Atomic kinds:                                   2
                             - Atoms:                                          4
                             - Shell sets:                                     9
                             - Shells:                                        47
                             - Primitive Cartesian functions:                 41
                             - Cartesian basis functions:                    177
                             - Spherical basis functions:                    147

  Maximum angular momentum of the orbital basis functions:                     4


 SCF PARAMETERS         Density guess:                                    ATOMIC
                        --------------------------------------------------------
                        max_scf:                                             100
                        max_scf_history:                                       0
                        max_diis:                                              4
                        --------------------------------------------------------
                        eps_scf:                                        1.00E-08
                        eps_scf_history:                                0.00E+00
                        eps_diis:                                       1.00E-01
                        eps_eigval:                                     1.00E-05
                        --------------------------------------------------------
                        level_shift [a.u.]:                             0.000000
                        --------------------------------------------------------
                        Mixing method:                           DIRECT_P_MIXING
                        --------------------------------------------------------
                        No outer SCF

 Extrapolation method: initial_guess

 Number of electrons:                                                         10
 Number of occupied orbitals:                                                  5
 Number of molecular orbitals:                                                 5

 Number of orbital functions:                                                147
 Number of independent orbital functions:                                    147


 SCF WAVEFUNCTION OPTIMIZATION

  Step     Update method      Time    Convergence         Total energy    Change
  ------------------------------------------------------------------------------
     1 P_Mix/Diag. 0.40E+00    5.8     0.84544912       -56.4902219358 -5.65E+01
     2 P_Mix/Diag. 0.40E+00    4.6     0.41424555       -56.5221415105 -3.19E-02
     3 P_Mix/Diag. 0.40E+00    4.5     0.24513373       -56.5388363521 -1.67E-02
     4 P_Mix/Diag. 0.40E+00    4.4     0.14574048       -56.5483065624 -9.47E-03
     5 P_Mix/Diag. 0.40E+00    4.4     0.08087128       -56.5541335044 -5.83E-03
     6 DIIS/Diag.  0.25E-02    4.4     0.04605777       -56.5576854230 -3.55E-03
     7 DIIS/Diag.  0.15E-02    4.5     0.00717444       -56.5630887065 -5.40E-03
     8 DIIS/Diag.  0.97E-03    4.5     0.00660280       -56.5630880212  6.85E-07
     9 DIIS/Diag.  0.60E-03    4.5     0.00208003       -56.5630895996 -1.58E-06
    10 DIIS/Diag.  0.14E-03    4.5     0.00016545       -56.5630902432 -6.44E-07
    11 DIIS/Diag.  0.11E-04    4.5     0.00001043       -56.5630902485 -5.25E-09
    12 DIIS/Diag.  0.26E-05    4.5     0.00000029       -56.5630902511 -2.61E-09
    13 DIIS/Diag.  0.11E-06    4.5     0.00000035       -56.5630902534 -2.32E-09
    14 DIIS/Diag.  0.19E-07    4.5     0.00000003       -56.5630902545 -1.12E-09
    15 DIIS/Diag.  0.12E-07    4.5     0.00000001       -56.5630902537  8.40E-10
    16 DIIS/Diag.  0.11E-07    4.5     0.00000002       -56.5630902535  2.09E-10
    17 DIIS/Diag.  0.95E-08    4.5     2.4214E-09       -56.5630902546 -1.16E-09

  *** SCF run converged in    17 steps ***


  Electronic density on regular grids:         -8.1822182571        1.8177817429
  Core density on regular grids:               10.0000000000       -0.0000000000
  Hard and soft densities (Lebedev):         -182.6618640241     -180.8440822813
  Total Rho_soft + Rho1_hard - Rho1_soft      -10.0000000000
  Total charge density (r-space):               0.0000000000
  Total Rho_soft + Rho0_soft (g-space):         0.0000000020

  Overlap energy of the core charge distribution:               0.00000057598714
  Self energy of the core charge distribution:                -52.03099861979277
  Core Hamiltonian energy:                                     -5.70938323178264
  Hartree energy:                                              17.91979941922657
  Exchange-correlation energy:                                 -8.00449716508760

  GAPW| Exc from hard and soft atomic rho1:                     0.00000000000000
  GAPW| local Eh = 1 center integrals:                         -8.73801123316673

  Total energy:                                               -56.56309025461601

 ENERGY| Total FORCE_EVAL ( QS ) energy [hartree]            -56.563090254616014

 -------------------------------------------------------------------------------
 -                                                                             -
 -                                DBCSR STATISTICS                             -
 -                                                                             -
 -------------------------------------------------------------------------------
 COUNTER                                    TOTAL       BLAS       SMM       ACC
 flops    57 x    30 x     5               290700       0.0%    100.0%      0.0%     
 flops    57 x    57 x     5               552330       0.0%    100.0%      0.0%     
 flops    30 x    57 x     5               581400       0.0%    100.0%      0.0%     
 flops    30 x    30 x     5               918000       0.0%    100.0%      0.0%     
 flops inhomo. stacks                           0       0.0%      0.0%      0.0%
 flops total                         2.342430E+06       0.0%    100.0%      0.0%
 flops max/rank                      2.342430E+06       0.0%    100.0%      0.0%
 matmuls inhomo. stacks                         0       0.0%      0.0%      0.0%
 matmuls total                                170       0.0%    100.0%      0.0%
 number of processed stacks                    68       0.0%    100.0%      0.0%
 average stack size                                     0.0       2.5       0.0
 marketing flops                     3.673530E+06
 -------------------------------------------------------------------------------
 # multiplications                             17
 max memory usage/rank              43.915555E+09
 # max total images/rank                        1
 # max 3D layers                                1
 # MPI messages exchanged                       0
 -------------------------------------------------------------------------------
 -                                                                             -
 -                      DBCSR MESSAGE PASSING PERFORMANCE                      -
 -                                                                             -
 -------------------------------------------------------------------------------
 ROUTINE             CALLS      AVE VOLUME [Bytes]
 MP_Bcast                5                     12.
 MP_Allreduce          112                     12.
 MP_Alltoall           561                  84841.
 MP_ISend               68                     80.
 MP_IRecv               68                     80.
 -------------------------------------------------------------------------------

 -------------------------------------------------------------------------------
 -                                                                             -
 -                                GRID STATISTICS                              -
 -                                                                             -
 -------------------------------------------------------------------------------
 LP    KERNEL             BACKEND                              COUNT     PERCENT
 3     collocate ortho    CPU                                   1728      13.68%
 6     collocate ortho    CPU                                   1728      13.68%
 3     integrate ortho    CPU                                   1632      12.92%
 6     integrate ortho    CPU                                   1632      12.92%
 4     collocate ortho    CPU                                    864       6.84%
 7     collocate ortho    CPU                                    864       6.84%
 4     integrate ortho    CPU                                    816       6.46%
 7     integrate ortho    CPU                                    816       6.46%
 0     collocate ortho    CPU                                    378       2.99%
 0     integrate ortho    CPU                                    357       2.83%
 5     collocate ortho    CPU                                    288       2.28%
 8     collocate ortho    CPU                                    288       2.28%
 5     integrate ortho    CPU                                    272       2.15%
 8     integrate ortho    CPU                                    272       2.15%
 1     collocate ortho    CPU                                    216       1.71%
 1     integrate ortho    CPU                                    204       1.61%
 2     collocate ortho    CPU                                     72       0.57%
 2     integrate ortho    CPU                                     68       0.54%
 6     collocate general  CPU                                     68       0.54%
 6     integrate general  CPU                                     68       0.54%
 0     collocate general  CPU                                      4       0.03%
 -------------------------------------------------------------------------------

 -------------------------------------------------------------------------------
 -                                                                             -
 -                          OFFLOAD MEMPOOL STATISTICS                         -
 -                                                                             -
 -------------------------------------------------------------------------------
 Memory consumption                Number of allocations  Used [MiB]  Size [MiB]
 Device                                                7         101         101
 Host                                                  7         101         101
 -------------------------------------------------------------------------------

 MEMORY| Estimated peak process memory [MiB]                                4912

 -------------------------------------------------------------------------------
 -                                                                             -
 -                         MESSAGE PASSING PERFORMANCE                         -
 -                                                                             -
 -------------------------------------------------------------------------------

 ROUTINE             CALLS      AVE VOLUME [Bytes]
 MP_Group                5
 MP_Bcast              170                  48528.
 MP_Allreduce          459                  25392.
 MP_Sync                21
 MP_comm_split          17
 -------------------------------------------------------------------------------


 -------------------------------------------------------------------------------
 -                                                                             -
 -                           R E F E R E N C E S                               -
 -                                                                             -
 -------------------------------------------------------------------------------
 
 CP2K version 2026.1 (Development Version), the CP2K developers group (2026).
 CP2K is freely available from https://www.cp2k.org/ .
 
 M. Iannuzzi, J. Wilhelm, F. Stein, A. Bussy, H. Elgabarty, D. Golze, A. Hehn, 
 M. Graml, S. Marek, B. Sertcan Gökmen, C. Schran, H. Forbert, R. Z. 
 Khaliullin, A. Kozhevnikov, M. Taillefumier, R. Meli, V. V. Rybkin, M. Brehm, 
 R. Schade, O. Schütt, J. V. Pototschnig, H. Mirhosseini, A. Knüpfer, D. Marx, 
 M. Krack, J. Hutter, T. D. Kühne.
 J. Phys. Chem. B 130, 1237-1310 (2026).
 The CP2K Program Package Made Simple.
 https://doi.org/10.1021/acs.jpcb.5c05851

 T. D. Kühne, M. Iannuzzi, M. Del Ben, V. V. Rybkin, P. Seewald, F. Stein, T. 
 Laino, R. Z. Khaliullin, O. Schütt, F. Schiffmann, D. Golze, J. Wilhelm, S. 
 Chulkov, M. H. Bani-Hashemian, V. Weber, U. Borstnik, M. Taillefumier, A. S. 
 Jakobovits, A. Lazzaro, H. Pabst, T. Müller, R. Schade, M. Guidon, S. 
 Andermatt, N. Holmberg, G. K. Schenter, A. Hehn, A. Bussy, F. Belleflamme, G. 
 Tabacchi, A. Glöß, M. Lass, I. Bethune, C. J. Mundy, C. Plessl, M. Watkins, 
 J. VandeVondele, M. Krack, J. Hutter.
 J. Chem. Phys. 152, 194103 (2020).
 CP2K: An electronic structure and molecular dynamics software package - 
 Quickstep: Efficient and accurate electronic structure calculations.
 https://doi.org/10.1063/5.0007045

 O. Schuett, P. Messmer, J. Hutter, J. VandeVondele.
 Electronic Structure Calculations on Graphics Processing Units, 173-190 (2016).
 GPU-Accelerated Sparse Matrix-Matrix Multiplication for Linear Scaling Density 
 Functional Theory.
 https://doi.org/10.1002/9781118670712.ch8

 A. Heinecke, G. Henry, M. Hutchinson, H. Pabst.
 Proceedings of Intl. Supercomputing Conference, 981-991 (2016).
 LIBXSMM: Accelerating Small Matrix Multiplications by Runtime Code Generation.
 https://doi.org/10.1109/SC.2016.83

 U. Borstnik, J. VandeVondele, V. Weber, J. Hutter.
 Parallel Comput. 40, 47-58 (2014).
 Sparse matrix multiplication: The distributed block-compressed sparse row 
 library.
 https://doi.org/10.1016/j.parco.2014.03.012

 J. VandeVondele, J. Hutter.
 J. Chem. Phys. 127, 114105 (2007).
 Gaussian basis sets for accurate calculations on molecular systems in gas and 
 condensed phases.
 https://doi.org/10.1063/1.2770708

 M. Frigo, S. G. Johnson.
 Proc. IEEE 93, 216-231 (2005).
 The design and implementation of FFTW3.
 https://doi.org/10.1109/JPROC.2004.840301

 M. Krack, M. Parrinello.
 Phys. Chem. Chem. Phys. 2, 2105-2112 (2000).
 All-electron ab-initio molecular dynamics.
 https://doi.org/10.1039/b001167n

 G. Lippert, J. Hutter, M. Parrinello.
 Theor. Chem. Acc. 103, 124-140 (1999).
 The Gaussian and augmented-plane-wave density functional method for ab initio 
 molecular dynamics simulations.
 https://doi.org/10.1007/s002140050523

 G. J. Martyna, M. E. Tuckerman.
 J. Chem. Phys. 110, 2810-2821 (1999).
 A reciprocal space based method for treating long range interactions in ab 
 initio and force-field-based calculations in clusters.
 https://doi.org/10.1063/1.477923


 -------------------------------------------------------------------------------
 -                                                                             -
 -                                T I M I N G                                  -
 -                                                                             -
 -------------------------------------------------------------------------------
 SUBROUTINE                       CALLS  ASD         SELF TIME        TOTAL TIME
                                MAXIMUM       AVERAGE  MAXIMUM  AVERAGE  MAXIMUM
 CP2K                                 1  1.0    0.150    0.150   82.340   82.340
 qs_energies                          1  2.0    0.000    0.000   78.463   78.463
 scf_env_do_scf                       1  3.0    0.000    0.000   77.993   77.993
 scf_env_do_scf_inner_loop           17  4.0    0.001    0.001   77.993   77.993
 qs_ks_update_qs_env                 17  5.0    0.000    0.000   72.524   72.524
 rebuild_ks_matrix                   17  6.0    0.000    0.000   72.523   72.523
 qs_ks_build_kohn_sham_matrix        17  7.0   60.544   60.544   72.523   72.523
 fft_wrap_pw1pw2                    193  9.2    0.002    0.002   12.960   12.960
 fft_wrap_pw1pw2_300                 87 10.0    2.014    2.014   11.524   11.524
 fft3d_s                            194 11.2    6.106    6.106    6.109    6.109
 qs_rho_update_rho_low               18  5.0    0.000    0.000    5.818    5.818
 calculate_rho_elec                  18  6.0    0.217    0.217    5.798    5.798
 density_rs2pw                       18  7.0    0.001    0.001    5.299    5.299
 qs_init_subsys                       1  2.0    0.001    0.001    3.697    3.697
 qs_env_setup                         1  3.0    0.000    0.000    3.671    3.671
 qs_env_rebuild_pw_env                2  3.5    0.000    0.000    3.671    3.671
 pw_env_rebuild                       1  5.0    0.000    0.000    3.671    3.671
 pw_grid_setup                        5  6.0    0.000    0.000    3.667    3.667
 pw_grid_setup_internal               5  7.0    0.036    0.036    3.667    3.667
 prepare_gapw_den                    17  8.0    0.000    0.000    3.518    3.518
 sum_up_and_integrate                17  8.0    0.000    0.000    3.366    3.366
 integrate_v_rspace                  17  9.0    0.001    0.001    3.366    3.366
 pw_grid_sort                         5  8.0    2.761    2.761    3.328    3.328
 pw_gather_s                        107 10.8    2.909    2.909    2.909    2.909
 potential_pw2rs                     17 10.0    0.013    0.013    2.903    2.903
 put_rho0_on_grid                    17  9.0    0.208    0.208    2.852    2.852
 pw_poisson_solve                    17  8.0    0.000    0.000    2.758    2.758
 -------------------------------------------------------------------------------

 The number of warnings for this run is : 0
 
 -------------------------------------------------------------------------------
  **** **** ******  **  PROGRAM ENDED AT                 2026-05-30 14:36:34.831
 ***** ** ***  *** **   PROGRAM RAN ON                                spark-c86c
 **    ****   ******    PROGRAM RAN BY                                  kuehne88
 ***** **    ** ** **   PROGRAM PROCESS ID                                133520
  **** **  *******  **  PROGRAM STOPPED IN /home/kuehne88/molecular-skala-final-
                                           20260530-prhead/skala-molopt-bench/ru
                                           ns/NH3_GAPW_AE_skala_force_minus
