 DBCSR| CPU Multiplication driver                                           XSMM (U)
 DBCSR| Multrec recursion limit                                              512 (U)
 DBCSR| Multiplication stack size                                           1000 (D)
 DBCSR| Maximum elements for images                                    UNLIMITED (U)
 DBCSR| Multiplicative factor virtual images                                   1 (U)
 DBCSR| Use multiplication densification                                       T (D)
 DBCSR| Multiplication size stacks                                             3 (U)
 DBCSR| Use memory pool for CPU allocation                                     F (U)
 DBCSR| Number of 3D layers                                               SINGLE (U)
 DBCSR| Use MPI memory allocation                                              F (U)
 DBCSR| Use RMA algorithm                                                      F (U)
 DBCSR| Use Communication thread                                               T (U)
 DBCSR| Communication thread load                                             87 (D)
 DBCSR| MPI: My process id                                                     0
 DBCSR| MPI: Number of processes                                               1
 DBCSR| OMP: Current number of threads                                         1
 DBCSR| OMP: Max number of threads                                             1
 DBCSR| Split modifier for TAS multiplication algorithm                  1.0E+00 (U)


  **** **** ******  **  PROGRAM STARTED AT               2026-05-30 14:04:37.175
 ***** ** ***  *** **   PROGRAM STARTED ON                            spark-c86c
 **    ****   ******    PROGRAM STARTED BY                              kuehne88
 ***** **    ** ** **   PROGRAM PROCESS ID                                 97694
  **** **  *******  **  PROGRAM STARTED IN /home/kuehne88/molecular-skala-final-
                                           20260530-prhead/skala-molopt-bench/ru
                                           ns/H2_GPW_skala_base

 CP2K| version string:                 CP2K version 2026.1 (Development Version)
 CP2K| source code revision number:                                   362771334d
 CP2K| cp2kflags: omp libint fftw3 libxc gauxc gauxc_mpi gauxc_onedft gauxc_host
 CP2K|             gauxc_device gauxc_cuda parallel scalapack xsmm spglib libtor
 CP2K|            rch
 CP2K| is freely available from                            https://www.cp2k.org/
 CP2K| Program compiled at                                   2026-05-29 22:13:32
 CP2K| Program compiled on                                            spark-c86c
 CP2K| Program compiled for                                              aarch64
 CP2K| Data directory path        /home/kuehne88/cp2k-periodic-skala-verify/data
 CP2K| Input file name                                                 input.inp

 GLOBAL| Force Environment number                                              1
 GLOBAL| Basis set file name                                    BASIS_MOLOPT_UZH
 GLOBAL| Potential file name                                       POTENTIAL_UZH
 GLOBAL| MM Potential file name                                     MM_POTENTIAL
 GLOBAL| Coordinate file name                                      __STD_INPUT__
 GLOBAL| Method name                                                        CP2K
 GLOBAL| Project name                                               H2_GPW_skala
 GLOBAL| Run type                                                   ENERGY_FORCE
 GLOBAL| FFT library                                                       FFTW3
 GLOBAL| Diagonalization library                                       ScaLAPACK
 GLOBAL| Cholesky decomposition library                                ScaLAPACK
 GLOBAL| DGEMM library                                                      BLAS
 GLOBAL| Direct generalized diagonalization requested                          F
 GLOBAL| Orthonormality check for eigenvectors                          DISABLED
 GLOBAL| Matrix multiplication library                                 ScaLAPACK
 GLOBAL| All-to-all communication in single precision                          F
 GLOBAL| FFTs using library dependent lengths                                  F
 GLOBAL| Grid backend                                                       AUTO
 GLOBAL| Global print level                                                  LOW
 GLOBAL| MPI I/O enabled                                                       T
 GLOBAL| Total number of message passing processes                             1
 GLOBAL| Number of distributed systems (nodes)                                 1
 GLOBAL| Number of threads for this process                                    1
 GLOBAL| This output is from process                                           0
 GLOBAL| OpenMP stack size per thread (OMP_STACKSIZE)                       512M
 GLOBAL| CPU model name                                                  UNKNOWN
 GLOBAL| CPUID                                                              2200
 GLOBAL| Compiled for CPUID                                                 2000

 *** HINT in environment.F:970 :: The compiler target flags (arm_arch64)   ***
 *** used to build this binary cannot exploit all extensions of this CPU   ***
 *** model (arm_sve256). Consider compiler target flags as part of FCFLAGS ***
 *** and CFLAGS (ARCH file).                                               ***


 MEMORY| system memory details [Kb]
 MEMORY|                        rank 0           min           max       average
 MEMORY| MemTotal            125508532     125508532     125508532     125508532
 MEMORY| MemFree              60132936      60132936      60132936      60132936
 MEMORY| Buffers               1394092       1394092       1394092       1394092
 MEMORY| Cached               56308048      56308048      56308048      56308048
 MEMORY| Slab                  3247632       3247632       3247632       3247632
 MEMORY| SReclaimable          2416824       2416824       2416824       2416824
 MEMORY| MemLikelyFree       120251900     120251900     120251900     120251900


 GENERATE|  Preliminary Number of Bonds generated:                             0
 GENERATE|  Achieved consistency in connectivity generation.

 *******************************************************************************
 *******************************************************************************
 **                                                                           **
 **     #####                         ##              ##                      **
 **    ##   ##            ##          ##              ##                      **
 **   ##     ##                       ##            ######                    **
 **   ##     ##  ##   ##  ##   #####  ##  ##   ####   ##    #####    #####    **
 **   ##     ##  ##   ##  ##  ##      ## ##   ##      ##   ##   ##  ##   ##   **
 **   ##  ## ##  ##   ##  ##  ##      ####     ###    ##   ######   ######    **
 **    ##  ###   ##   ##  ##  ##      ## ##      ##   ##   ##       ##        **
 **     #######   #####   ##   #####  ##  ##  ####    ##    #####   ##        **
 **           ##                                                    ##        **
 **                                                                           **
 **                                                ... make the atoms dance   **
 **                                                                           **
 **            Copyright (C) by CP2K developers group (2000-2026)             **
 **                      J. Chem. Phys. 152, 194103 (2020)                    **
 **                                                                           **
 *******************************************************************************


 TOTAL NUMBERS AND MAXIMUM NUMBERS

  Total number of            - Atomic kinds:                                   1
                             - Atoms:                                          2
                             - Shell sets:                                     2
                             - Shells:                                        12
                             - Primitive Cartesian functions:                 10
                             - Cartesian basis functions:                     30
                             - Spherical basis functions:                     28

  Maximum angular momentum of- Orbital basis functions:                        2
                             - Local part of the GTH pseudopotential:          2


 SCF PARAMETERS         Density guess:                                    ATOMIC
                        --------------------------------------------------------
                        max_scf:                                             100
                        max_scf_history:                                       0
                        max_diis:                                              4
                        --------------------------------------------------------
                        eps_scf:                                        1.00E-08
                        eps_scf_history:                                0.00E+00
                        eps_diis:                                       1.00E-01
                        eps_eigval:                                     1.00E-05
                        --------------------------------------------------------
                        level_shift [a.u.]:                             0.000000
                        --------------------------------------------------------
                        Mixing method:                           DIRECT_P_MIXING
                        --------------------------------------------------------
                        No outer SCF

 Extrapolation method: initial_guess

 Number of electrons:                                                          2
 Number of occupied orbitals:                                                  1
 Number of molecular orbitals:                                                 1

 Number of orbital functions:                                                 28
 Number of independent orbital functions:                                     28


 SCF WAVEFUNCTION OPTIMIZATION

  Step     Update method      Time    Convergence         Total energy    Change
  ------------------------------------------------------------------------------

 *** WARNING in xc/xc_gauxc_functional.F:1154 :: GauXC OneDFT/SKALA        ***
 *** nuclear gradients are sensitive to the GauXC molecular grid. Use GRID ***
 *** SUPERFINE and PRUNING_SCHEME UNPRUNED for quantitative force checks.  ***

     1 P_Mix/Diag. 0.40E+00    3.1     1.14699551        -0.9668165796 -9.67E-01

 *** WARNING in xc/xc_gauxc_functional.F:1154 :: GauXC OneDFT/SKALA        ***
 *** nuclear gradients are sensitive to the GauXC molecular grid. Use GRID ***
 *** SUPERFINE and PRUNING_SCHEME UNPRUNED for quantitative force checks.  ***

     2 P_Mix/Diag. 0.40E+00    1.9     0.65317814        -1.0527556309 -8.59E-02

 *** WARNING in xc/xc_gauxc_functional.F:1154 :: GauXC OneDFT/SKALA        ***
 *** nuclear gradients are sensitive to the GauXC molecular grid. Use GRID ***
 *** SUPERFINE and PRUNING_SCHEME UNPRUNED for quantitative force checks.  ***

     3 P_Mix/Diag. 0.40E+00    1.9     0.36287859        -1.1020314503 -4.93E-02

 *** WARNING in xc/xc_gauxc_functional.F:1154 :: GauXC OneDFT/SKALA        ***
 *** nuclear gradients are sensitive to the GauXC molecular grid. Use GRID ***
 *** SUPERFINE and PRUNING_SCHEME UNPRUNED for quantitative force checks.  ***

     4 P_Mix/Diag. 0.40E+00    1.8     0.20315307        -1.1308526736 -2.88E-02

 *** WARNING in xc/xc_gauxc_functional.F:1154 :: GauXC OneDFT/SKALA        ***
 *** nuclear gradients are sensitive to the GauXC molecular grid. Use GRID ***
 *** SUPERFINE and PRUNING_SCHEME UNPRUNED for quantitative force checks.  ***

     5 P_Mix/Diag. 0.40E+00    1.8     0.11471179        -1.1479047086 -1.71E-02

 *** WARNING in xc/xc_gauxc_functional.F:1154 :: GauXC OneDFT/SKALA        ***
 *** nuclear gradients are sensitive to the GauXC molecular grid. Use GRID ***
 *** SUPERFINE and PRUNING_SCHEME UNPRUNED for quantitative force checks.  ***

     6 P_Mix/Diag. 0.40E+00    1.8     0.06534291        -1.1580708853 -1.02E-02

 *** WARNING in xc/xc_gauxc_functional.F:1154 :: GauXC OneDFT/SKALA        ***
 *** nuclear gradients are sensitive to the GauXC molecular grid. Use GRID ***
 *** SUPERFINE and PRUNING_SCHEME UNPRUNED for quantitative force checks.  ***

     7 DIIS/Diag.  0.15E-02    1.8     0.03580286        -1.1641541730 -6.08E-03

 *** WARNING in xc/xc_gauxc_functional.F:1154 :: GauXC OneDFT/SKALA        ***
 *** nuclear gradients are sensitive to the GauXC molecular grid. Use GRID ***
 *** SUPERFINE and PRUNING_SCHEME UNPRUNED for quantitative force checks.  ***

     8 DIIS/Diag.  0.21E-03    1.8     0.00006687        -1.1732607693 -9.11E-03

 *** WARNING in xc/xc_gauxc_functional.F:1154 :: GauXC OneDFT/SKALA        ***
 *** nuclear gradients are sensitive to the GauXC molecular grid. Use GRID ***
 *** SUPERFINE and PRUNING_SCHEME UNPRUNED for quantitative force checks.  ***

     9 DIIS/Diag.  0.12E-03    1.8     0.00024480        -1.1732607728 -3.47E-09

 *** WARNING in xc/xc_gauxc_functional.F:1154 :: GauXC OneDFT/SKALA        ***
 *** nuclear gradients are sensitive to the GauXC molecular grid. Use GRID ***
 *** SUPERFINE and PRUNING_SCHEME UNPRUNED for quantitative force checks.  ***

    10 DIIS/Diag.  0.30E-03    1.8     0.00075594        -1.1732607705  2.27E-09

 *** WARNING in xc/xc_gauxc_functional.F:1154 :: GauXC OneDFT/SKALA        ***
 *** nuclear gradients are sensitive to the GauXC molecular grid. Use GRID ***
 *** SUPERFINE and PRUNING_SCHEME UNPRUNED for quantitative force checks.  ***

    11 DIIS/Diag.  0.80E-03    1.8     0.00082309        -1.1732605209  2.50E-07

 *** WARNING in xc/xc_gauxc_functional.F:1154 :: GauXC OneDFT/SKALA        ***
 *** nuclear gradients are sensitive to the GauXC molecular grid. Use GRID ***
 *** SUPERFINE and PRUNING_SCHEME UNPRUNED for quantitative force checks.  ***

    12 DIIS/Diag.  0.63E-05    1.8     0.00000180        -1.1732607905 -2.70E-07

 *** WARNING in xc/xc_gauxc_functional.F:1154 :: GauXC OneDFT/SKALA        ***
 *** nuclear gradients are sensitive to the GauXC molecular grid. Use GRID ***
 *** SUPERFINE and PRUNING_SCHEME UNPRUNED for quantitative force checks.  ***

    13 DIIS/Diag.  0.25E-06    1.8     0.00000007        -1.1732607917 -1.21E-09

 *** WARNING in xc/xc_gauxc_functional.F:1154 :: GauXC OneDFT/SKALA        ***
 *** nuclear gradients are sensitive to the GauXC molecular grid. Use GRID ***
 *** SUPERFINE and PRUNING_SCHEME UNPRUNED for quantitative force checks.  ***

    14 DIIS/Diag.  0.61E-08    1.8     1.8257E-09        -1.1732607915  2.65E-10

  *** SCF run converged in    14 steps ***


  Electronic density on regular grids:         -2.0000000000        0.0000000000
  Core density on regular grids:                1.9999999999       -0.0000000001
  Total charge density on r-space grids:       -0.0000000001
  Total charge density g-space grids:          -0.0000000001

  Overlap energy of the core charge distribution:               0.00000058965184
  Self energy of the core charge distribution:                 -2.81260610747607
  Core Hamiltonian energy:                                      0.98607450497962
  Hartree energy:                                               1.35547843920502
  Exchange-correlation energy:                                 -0.70220821781451

  Total energy:                                                -1.17326079145409

 *** WARNING in xc/xc_gauxc_functional.F:1154 :: GauXC OneDFT/SKALA        ***
 *** nuclear gradients are sensitive to the GauXC molecular grid. Use GRID ***
 *** SUPERFINE and PRUNING_SCHEME UNPRUNED for quantitative force checks.  ***


 GAUXC| Molecular XC gradient virial diagnostic [a.u.]
 GAUXC|            x                   y                   z
 GAUXC| x   0.00000000000E+00   0.00000000000E+00   1.96818428112E-11
 GAUXC| y   0.00000000000E+00   0.00000000000E+00  -4.95797827357E-11
 GAUXC| z   0.00000000000E+00   0.00000000000E+00   3.34709953184E-01
 GAUXC| Molecular XC gradient virial 1/3 Trace   1.11569984395E-01
 GAUXC| Molecular XC gradient sum  -6.93889390391E-18  -6.93889390391E-18   0.00000000000E+00
 GAUXC| Diagnostic only; this is not an analytical periodic stress tensor.

 GAUXC| Molecular XC virial finite-difference dx  1.0000E-04
 GAUXC| Molecular XC virial FD 1/3 Trace   1.11569984395E-01   1.11571293068E-01  -1.30867332318E-06

 ENERGY| Total FORCE_EVAL ( QS ) energy [hartree]             -1.173260791437501

 FORCES| Atomic forces [hartree/bohr]
 FORCES|   Atom     x               y               z               |f|
 FORCES|      1  2.04955051E-11 -3.43420210E-11  1.69675442E-03   1.69675442E-03
 FORCES|      2 -2.00634265E-11  3.47739600E-11 -1.69675442E-03   1.69675442E-03
 FORCES| Sum     4.32078581E-13  4.31938997E-13  6.59639010E-13
 FORCES| Total atomic force                                       8.99103342E-13

 -------------------------------------------------------------------------------
 -                                                                             -
 -                                DBCSR STATISTICS                             -
 -                                                                             -
 -------------------------------------------------------------------------------
 COUNTER                                    TOTAL       BLAS       SMM       ACC
 flops    14 x    14 x     1                17640       0.0%    100.0%      0.0%     
 flops inhomo. stacks                           0       0.0%      0.0%      0.0%
 flops total                        17.640000E+03       0.0%    100.0%      0.0%
 flops max/rank                     17.640000E+03       0.0%    100.0%      0.0%
 matmuls inhomo. stacks                         0       0.0%      0.0%      0.0%
 matmuls total                                 45       0.0%    100.0%      0.0%
 number of processed stacks                    15       0.0%    100.0%      0.0%
 average stack size                                     0.0       3.0       0.0
 marketing flops                    23.520000E+03
 -------------------------------------------------------------------------------
 # multiplications                             15
 max memory usage/rank              35.096109E+09
 # max total images/rank                        1
 # max 3D layers                                1
 # MPI messages exchanged                       0
 -------------------------------------------------------------------------------
 -                                                                             -
 -                      DBCSR MESSAGE PASSING PERFORMANCE                      -
 -                                                                             -
 -------------------------------------------------------------------------------
 ROUTINE             CALLS      AVE VOLUME [Bytes]
 MP_Bcast                2                     12.
 MP_Allreduce           96                     11.
 MP_Alltoall           478                   3012.
 MP_ISend               60                     40.
 MP_IRecv               60                     40.
 -------------------------------------------------------------------------------

 -------------------------------------------------------------------------------
 -                                                                             -
 -                                GRID STATISTICS                              -
 -                                                                             -
 -------------------------------------------------------------------------------
 LP    KERNEL             BACKEND                              COUNT     PERCENT
 4     collocate ortho    CPU                                   1125      49.91%
 4     integrate ortho    CPU                                   1050      46.58%
 5     integrate ortho    CPU                                     75       3.33%
 0     collocate general  CPU                                      2       0.09%
 1     integrate general  CPU                                      2       0.09%
 -------------------------------------------------------------------------------

 -------------------------------------------------------------------------------
 -                                                                             -
 -                          OFFLOAD MEMPOOL STATISTICS                         -
 -                                                                             -
 -------------------------------------------------------------------------------
 Memory consumption                Number of allocations  Used [MiB]  Size [MiB]
 Device                                                6          56          56
 Host                                                  6          56          56
 -------------------------------------------------------------------------------

 MEMORY| Estimated peak process memory [MiB]                                4070

 -------------------------------------------------------------------------------
 -                                                                             -
 -                         MESSAGE PASSING PERFORMANCE                         -
 -                                                                             -
 -------------------------------------------------------------------------------

 ROUTINE             CALLS      AVE VOLUME [Bytes]
 MP_Group                5
 MP_Bcast               28                    114.
 MP_Allreduce          220                    439.
 MP_Sync                18
 MP_comm_split          14
 -------------------------------------------------------------------------------


 -------------------------------------------------------------------------------
 -                                                                             -
 -                           R E F E R E N C E S                               -
 -                                                                             -
 -------------------------------------------------------------------------------
 
 CP2K version 2026.1 (Development Version), the CP2K developers group (2026).
 CP2K is freely available from https://www.cp2k.org/ .
 
 M. Iannuzzi, J. Wilhelm, F. Stein, A. Bussy, H. Elgabarty, D. Golze, A. Hehn, 
 M. Graml, S. Marek, B. Sertcan Gökmen, C. Schran, H. Forbert, R. Z. 
 Khaliullin, A. Kozhevnikov, M. Taillefumier, R. Meli, V. V. Rybkin, M. Brehm, 
 R. Schade, O. Schütt, J. V. Pototschnig, H. Mirhosseini, A. Knüpfer, D. Marx, 
 M. Krack, J. Hutter, T. D. Kühne.
 J. Phys. Chem. B 130, 1237-1310 (2026).
 The CP2K Program Package Made Simple.
 https://doi.org/10.1021/acs.jpcb.5c05851

 T. D. Kühne, M. Iannuzzi, M. Del Ben, V. V. Rybkin, P. Seewald, F. Stein, T. 
 Laino, R. Z. Khaliullin, O. Schütt, F. Schiffmann, D. Golze, J. Wilhelm, S. 
 Chulkov, M. H. Bani-Hashemian, V. Weber, U. Borstnik, M. Taillefumier, A. S. 
 Jakobovits, A. Lazzaro, H. Pabst, T. Müller, R. Schade, M. Guidon, S. 
 Andermatt, N. Holmberg, G. K. Schenter, A. Hehn, A. Bussy, F. Belleflamme, G. 
 Tabacchi, A. Glöß, M. Lass, I. Bethune, C. J. Mundy, C. Plessl, M. Watkins, 
 J. VandeVondele, M. Krack, J. Hutter.
 J. Chem. Phys. 152, 194103 (2020).
 CP2K: An electronic structure and molecular dynamics software package - 
 Quickstep: Efficient and accurate electronic structure calculations.
 https://doi.org/10.1063/5.0007045

 O. Schuett, P. Messmer, J. Hutter, J. VandeVondele.
 Electronic Structure Calculations on Graphics Processing Units, 173-190 (2016).
 GPU-Accelerated Sparse Matrix-Matrix Multiplication for Linear Scaling Density 
 Functional Theory.
 https://doi.org/10.1002/9781118670712.ch8

 A. Heinecke, G. Henry, M. Hutchinson, H. Pabst.
 Proceedings of Intl. Supercomputing Conference, 981-991 (2016).
 LIBXSMM: Accelerating Small Matrix Multiplications by Runtime Code Generation.
 https://doi.org/10.1109/SC.2016.83

 U. Borstnik, J. VandeVondele, V. Weber, J. Hutter.
 Parallel Comput. 40, 47-58 (2014).
 Sparse matrix multiplication: The distributed block-compressed sparse row 
 library.
 https://doi.org/10.1016/j.parco.2014.03.012

 J. VandeVondele, J. Hutter.
 J. Chem. Phys. 127, 114105 (2007).
 Gaussian basis sets for accurate calculations on molecular systems in gas and 
 condensed phases.
 https://doi.org/10.1063/1.2770708

 J. VandeVondele, M. Krack, F. Mohamed, M. Parrinello, T. Chassaing, J. Hutter.
 Comput. Phys. Commun. 167, 103-128 (2005).
 QUICKSTEP: Fast and accurate density functional calculations using a mixed 
 Gaussian and plane waves approach.
 https://doi.org/10.1016/j.cpc.2004.12.014

 M. Krack.
 Theor. Chem. Acc. 114, 145-152 (2005).
 Pseudopotentials for H to Kr optimized for gradient-corrected 
 exchange-correlation functionals.
 https://doi.org/10.1007/s00214-005-0655-y

 M. Frigo, S. G. Johnson.
 Proc. IEEE 93, 216-231 (2005).
 The design and implementation of FFTW3.
 https://doi.org/10.1109/JPROC.2004.840301

 G. J. Martyna, M. E. Tuckerman.
 J. Chem. Phys. 110, 2810-2821 (1999).
 A reciprocal space based method for treating long range interactions in ab 
 initio and force-field-based calculations in clusters.
 https://doi.org/10.1063/1.477923

 C. Hartwigsen, S. Goedecker, J. Hutter.
 Phys. Rev. B 58, 3641-3662 (1998).
 Relativistic separable dual-space Gaussian pseudopotentials from H to Rn.
 https://doi.org/10.1103/PhysRevB.58.3641

 G. Lippert, J. Hutter, M. Parrinello.
 Mol. Phys. 92, 477-487 (1997).
 A hybrid Gaussian and plane wave density functional scheme.
 https://doi.org/10.1080/002689797170220

 S. Goedecker, M. Teter, J. Hutter.
 Phys. Rev. B 54, 1703-1710 (1996).
 Separable dual-space Gaussian pseudopotentials.
 https://doi.org/10.1103/PhysRevB.54.1703


 -------------------------------------------------------------------------------
 -                                                                             -
 -                                T I M I N G                                  -
 -                                                                             -
 -------------------------------------------------------------------------------
 SUBROUTINE                       CALLS  ASD         SELF TIME        TOTAL TIME
                                MAXIMUM       AVERAGE  MAXIMUM  AVERAGE  MAXIMUM
 CP2K                                 1  1.0    0.106    0.106   35.788   35.788
 qs_forces                            1  2.0    0.000    0.000   32.224   32.224
 rebuild_ks_matrix                   15  6.8    0.000    0.000   27.539   27.539
 qs_ks_build_kohn_sham_matrix        15  7.8   21.056   21.056   27.539   27.539
 qs_energies                          1  3.0    0.000    0.000   27.184   27.184
 scf_env_do_scf                       1  4.0    0.000    0.000   26.599   26.599
 scf_env_do_scf_inner_loop           14  5.0    0.001    0.001   26.599   26.599
 qs_ks_update_qs_env                 14  6.0    0.000    0.000   22.499   22.499
 fft_wrap_pw1pw2                    152 10.1    0.001    0.001    8.813    8.813
 fft_wrap_pw1pw2_300                 61 10.6    1.186    1.186    7.571    7.571
 qs_ks_update_qs_env_forces           1  3.0    0.000    0.000    5.040    5.040
 qs_rho_update_rho_low               15  6.0    0.000    0.000    4.463    4.463
 calculate_rho_elec                  15  7.0    0.181    0.181    4.463    4.463
 fft3d_s                            153 12.0    4.401    4.401    4.404    4.404
 density_rs2pw                       15  8.0    0.000    0.000    4.211    4.211
 qs_init_subsys                       1  2.0    0.000    0.000    3.452    3.452
 qs_env_setup                         1  3.0    0.000    0.000    3.450    3.450
 qs_env_rebuild_pw_env                3  3.7    0.000    0.000    3.450    3.450
 pw_env_rebuild                       1  5.0    0.000    0.000    3.450    3.450
 pw_grid_setup                        5  6.0    0.000    0.000    3.450    3.450
 pw_grid_setup_internal               5  7.0    0.036    0.036    3.450    3.450
 pw_grid_sort                         5  8.0    2.601    2.601    3.143    3.143
 sum_up_and_integrate                15  8.8    0.000    0.000    2.452    2.452
 integrate_v_rspace                  15  9.8    0.000    0.000    2.452    2.452
 potential_pw2rs                     15 10.8    0.011    0.011    2.401    2.401
 pw_poisson_solve                    15  8.8    0.000    0.000    2.213    2.213
 pw_gather_s                         77 11.6    1.724    1.724    1.724    1.724
 pw_scatter_s                        75 12.6    1.204    1.204    1.204    1.204
 pw_poisson_rebuild                  15  9.8    0.020    0.020    1.041    1.041
 MTin_create_screen_fn                1 11.0    0.041    0.041    1.021    1.021
 fft_wrap_pw1pw2_600                  1 13.0    0.086    0.086    0.721    0.721
 -------------------------------------------------------------------------------

 The number of warnings for this run is : 15
 
 -------------------------------------------------------------------------------
  **** **** ******  **  PROGRAM ENDED AT                 2026-05-30 14:05:13.204
 ***** ** ***  *** **   PROGRAM RAN ON                                spark-c86c
 **    ****   ******    PROGRAM RAN BY                                  kuehne88
 ***** **    ** ** **   PROGRAM PROCESS ID                                 97694
  **** **  *******  **  PROGRAM STOPPED IN /home/kuehne88/molecular-skala-final-
                                           20260530-prhead/skala-molopt-bench/ru
                                           ns/H2_GPW_skala_base
