&GLOBAL
  PRINT_LEVEL MEDIUM
  PROJECT_NAME 3fdfbc30f87150456ef640e32982a81bbae6fcdc
  RUN_TYPE ENERGY
&END GLOBAL
&FORCE_EVAL
  METHOD Quickstep
  &DFT
    BASIS_SET_FILE_NAME BASIS_MOLOPT_UZH
    POTENTIAL_FILE_NAME POTENTIAL_UZH
    CHARGE 0
    MULTIPLICITY 2
    UKS TRUE
    &MGRID
      CUTOFF 1000
      REL_CUTOFF 60
      NGRIDS 4
    &END MGRID
    &POISSON
      PERIODIC NONE
      POISSON_SOLVER ANALYTIC
    &END POISSON
    &QS
      EPS_DEFAULT 1e-10
    &END QS
    &SCF
      EPS_SCF 1e-05
      MAX_SCF 100
      SCF_GUESS ATOMIC
      &DIAGONALIZATION
      &END DIAGONALIZATION
      &MIXING
        METHOD DIRECT_P_MIXING
        ALPHA 0.4
        NMIXING 2
      &END MIXING
    &END SCF
    &XC
      &XC_FUNCTIONAL
        &GAUXC
          FUNCTIONAL PBE
          MODEL aug-s0-funv2-cpu.fun
          GRID FINE
          PRUNING_SCHEME ROBUST
          RADIAL_QUADRATURE MURAKNOWLES
        &END GAUXC
      &END XC_FUNCTIONAL
    &END XC
    &PRINT
      &MO
        ENERGIES T
        OCCNUMS  T
        &EACH
          QS_SCF 0
        &END
      &END
    &END
  &END DFT
  &SUBSYS
    &CELL
      ABC 30.0000 30.0000 30.0000
      ALPHA_BETA_GAMMA 90.0000 90.0000 90.0000
      PERIODIC NONE
    &END CELL
    &TOPOLOGY
      &CENTER_COORDINATES
      &END
    &END TOPOLOGY
    &COORD
      F        0.0000000000        0.0000000000        0.0000000000
    &END COORD
    &KIND F
      BASIS_SET TZVP-MOLOPT-SCAN-GTH-q7
      POTENTIAL GTH-SCAN-q7
    &END KIND
  &END SUBSYS
&END FORCE_EVAL

================================================================================
=== END OF CP2K INPUT / START OF CP2K OUTPUT ===
================================================================================

 DBCSR| CPU Multiplication driver                                           BLAS (U)
 DBCSR| Multrec recursion limit                                              512 (U)
 DBCSR| Multiplication stack size                                           1000 (D)
 DBCSR| Maximum elements for images                                    UNLIMITED (U)
 DBCSR| Multiplicative factor virtual images                                   1 (U)
 DBCSR| Use multiplication densification                                       T (D)
 DBCSR| Multiplication size stacks                                             3 (U)
 DBCSR| Use memory pool for CPU allocation                                     F (U)
 DBCSR| Number of 3D layers                                               SINGLE (U)
 DBCSR| Use MPI memory allocation                                              F (U)
 DBCSR| Use RMA algorithm                                                      F (U)
 DBCSR| Use Communication thread                                               T (U)
 DBCSR| Communication thread load                                             87 (D)
 DBCSR| MPI: My process id                                                     0
 DBCSR| MPI: Number of processes                                              16
 DBCSR| OMP: Current number of threads                                         1
 DBCSR| OMP: Max number of threads                                             1
 DBCSR| Split modifier for TAS multiplication algorithm                  1.0E+00 (U)


  **** **** ******  **  PROGRAM STARTED AT               2026-08-13 12:15:20.262
 ***** ** ***  *** **   PROGRAM STARTED ON        eb3791e2ef3243b6944400b65b9622
 **    ****   ******    PROGRAM STARTED BY                             <unknown>
 ***** **    ** ** **   PROGRAM PROCESS ID                                   813
  **** **  *******  **  PROGRAM STARTED IN                    /tmp/cp2k_sygtgvun

 CP2K| version string:                                       CP2K version 2026.2
 CP2K| source code revision number:                                  git:c92cc08
 CP2K| cp2kflags: omp libint fftw3 libxc gauxc gauxc_mpi gauxc_onedft gauxc_host
 CP2K|             parallel scalapack mpi_f08 spglib sirius libtorch hdf5
 CP2K| is freely available from                            https://www.cp2k.org/
 CP2K| Program compiled at                                   2026-08-13 02:05:42
 CP2K| Program compiled on                                                      
 CP2K| Program compiled for                                               x86_64
 CP2K| Data directory path                             /opt/cp2k/share/cp2k/data
 CP2K| Input file name                                            cp2k_input.inp

 GLOBAL| Force Environment number                                              1
 GLOBAL| Basis set file name                                    BASIS_MOLOPT_UZH
 GLOBAL| Potential file name                                       POTENTIAL_UZH
 GLOBAL| MM Potential file name                                     MM_POTENTIAL
 GLOBAL| Coordinate file name                                      __STD_INPUT__
 GLOBAL| Method name                                                        CP2K
 GLOBAL| Project name                   3fdfbc30f87150456ef640e32982a81bbae6fcdc
 GLOBAL| Run type                                                         ENERGY
 GLOBAL| FFT library                                                       FFTW3
 GLOBAL| Diagonalization library                                       ScaLAPACK
 GLOBAL| Cholesky decomposition library                                ScaLAPACK
 GLOBAL| DGEMM library                                                      BLAS
 GLOBAL| Direct generalized diagonalization requested                          F
 GLOBAL| Orthonormality check for eigenvectors                          DISABLED
 GLOBAL| Matrix multiplication library                                 ScaLAPACK
 GLOBAL| All-to-all communication in single precision                          F
 GLOBAL| FFTs using library dependent lengths                                  F
 GLOBAL| Grid backend                                                       AUTO
 GLOBAL| Global print level                                               MEDIUM
 GLOBAL| MPI I/O enabled                                                       T
 GLOBAL| Total number of message passing processes                            16
 GLOBAL| Number of distributed systems (nodes)                                 1
 GLOBAL| Number of threads for this process                                    1
 GLOBAL| This output is from process                                           0
 GLOBAL| OpenMP stack size per thread (OMP_STACKSIZE)                        16M
 GLOBAL| CPU model name                          AMD EPYC 9V74 80-Core Processor
 GLOBAL| CPUID                                                              1002

 MEMORY| system memory details [Kb]
 MEMORY|                        rank 0           min           max       average
 MEMORY| MemTotal            263924000     263924000     263924000     263924000
 MEMORY| MemFree             238935756     238935756     238935756     238935756
 MEMORY| Buffers                355808        355808        355808        355808
 MEMORY| Cached               17851772      17851772      17851772      17851772
 MEMORY| Slab                  1467764       1467764       1467764       1467764
 MEMORY| SReclaimable          1125304       1125304       1125304       1125304
 MEMORY| MemLikelyFree       258268640     258268640     258268640     258268640


 *** Fundamental physical constants (SI units) ***

 *** Literature: B. J. Mohr and B. N. Taylor,
 ***             CODATA recommended values of the fundamental physical
 ***             constants: 2006, Web Version 5.1
 ***             http://physics.nist.gov/constants

 Speed of light in vacuum [m/s]                             2.99792458000000E+08
 Magnetic constant or permeability of vacuum [N/A**2]       1.25663706143592E-06
 Electric constant or permittivity of vacuum [F/m]          8.85418781762039E-12
 Planck constant (h) [J*s]                                  6.62606896000000E-34
 Planck constant (h-bar) [J*s]                              1.05457162825177E-34
 Elementary charge [C]                                      1.60217648700000E-19
 Electron mass [kg]                                         9.10938215000000E-31
 Electron g factor [ ]                                     -2.00231930436220E+00
 Proton mass [kg]                                           1.67262163700000E-27
 Fine-structure constant                                    7.29735253760000E-03
 Rydberg constant [1/m]                                     1.09737315685270E+07
 Avogadro constant [1/mol]                                  6.02214179000000E+23
 Boltzmann constant [J/K]                                   1.38065040000000E-23
 Atomic mass unit [kg]                                      1.66053878200000E-27
 Bohr radius [m]                                            5.29177208590000E-11

 *** Conversion factors ***

 [u] -> [a.u.]                                              1.82288848426455E+03
 [Angstrom] -> [Bohr] = [a.u.]                              1.88972613288564E+00
 [a.u.] = [Bohr] -> [Angstrom]                              5.29177208590000E-01
 [a.u.] -> [s]                                              2.41888432650478E-17
 [a.u.] -> [fs]                                             2.41888432650478E-02
 [a.u.] -> [J]                                              4.35974393937059E-18
 [a.u.] -> [N]                                              8.23872205491840E-08
 [a.u.] -> [K]                                              3.15774647902944E+05
 [a.u.] -> [kJ/mol]                                         2.62549961709828E+03
 [a.u.] -> [kcal/mol]                                       6.27509468713739E+02
 [a.u.] -> [Pa]                                             2.94210107994716E+13
 [a.u.] -> [bar]                                            2.94210107994716E+08
 [a.u.] -> [atm]                                            2.90362800883016E+08
 [a.u.] -> [eV]                                             2.72113838565563E+01
 [a.u.] -> [Hz]                                             6.57968392072181E+15
 [a.u.] -> [1/cm] (wave numbers)                            2.19474631370540E+05
 [a.u./Bohr**2] -> [1/cm]                                   5.14048714338585E+03
 

 CELL| Volume [angstrom^3]:                                         27000.000000
 CELL| Vector a [angstrom]:      30.000     0.000     0.000   |a| =    30.000000
 CELL| Vector b [angstrom]:       0.000    30.000     0.000   |b| =    30.000000
 CELL| Vector c [angstrom]:       0.000     0.000    30.000   |c| =    30.000000
 CELL| Angle (b,c), alpha [degree]:                                    90.000000
 CELL| Angle (a,c), beta  [degree]:                                    90.000000
 CELL| Angle (a,b), gamma [degree]:                                    90.000000
 CELL| Numerically orthorhombic:                                             YES
 CELL| Periodicity                                                          NONE

 CELL_REF| Volume [angstrom^3]:                                     27000.000000
 CELL_REF| Vector a [angstrom    30.000     0.000     0.000   |a| =    30.000000
 CELL_REF| Vector b [angstrom     0.000    30.000     0.000   |b| =    30.000000
 CELL_REF| Vector c [angstrom     0.000     0.000    30.000   |c| =    30.000000
 CELL_REF| Angle (b,c), alpha [degree]:                                90.000000
 CELL_REF| Angle (a,c), beta  [degree]:                                90.000000
 CELL_REF| Angle (a,b), gamma [degree]:                                90.000000
 CELL_REF| Numerically orthorhombic:                                         YES
 CELL_REF| Periodicity                                                      NONE

 GENERATE|  Preliminary Number of Bonds generated:                             0
 GENERATE|  Achieved consistency in connectivity generation.

 *******************************************************************************
 *******************************************************************************
 **                                                                           **
 **     #####                         ##              ##                      **
 **    ##   ##            ##          ##              ##                      **
 **   ##     ##                       ##            ######                    **
 **   ##     ##  ##   ##  ##   #####  ##  ##   ####   ##    #####    #####    **
 **   ##     ##  ##   ##  ##  ##      ## ##   ##      ##   ##   ##  ##   ##   **
 **   ##  ## ##  ##   ##  ##  ##      ####     ###    ##   ######   ######    **
 **    ##  ###   ##   ##  ##  ##      ## ##      ##   ##   ##       ##        **
 **     #######   #####   ##   #####  ##  ##  ####    ##    #####   ##        **
 **           ##                                                    ##        **
 **                                                                           **
 **                                                ... make the atoms dance   **
 **                                                                           **
 **            Copyright (C) by CP2K developers group (2000-2026)             **
 **                      J. Chem. Phys. 152, 194103 (2020)                    **
 **                                                                           **
 *******************************************************************************

 DFT| Spin unrestricted (spin-polarized) Kohn-Sham calculation               UKS
 DFT| Multiplicity                                                             2
 DFT| Number of spin states                                                    2
 DFT| Charge                                                                   0
 DFT| Self-interaction correction (SIC)                                       NO
 DFT| Cutoffs: density                                              1.000000E-10
 DFT|          gradient                                             1.000000E-10
 DFT|          tau                                                  1.000000E-10
 DFT|          cutoff_smoothing_range                               0.000000E+00
 DFT| XC density smoothing                                                  NONE
 DFT| XC derivatives                                                          PW

 FUNCTIONAL| GAUXC:
 FUNCTIONAL| Functional computed by GauXC Skala model aug-s0-funv2-cpu.fun      


 QS| Method:                                                                 GPW
 QS| Density plane wave grid type                        NON-SPHERICAL FULLSPACE
 QS| Number of grid levels:                                                    4
 QS| Density cutoff [a.u.]:                                                500.0
 QS| Multi grid cutoff [a.u.]: 1) grid level                               500.0
 QS|                           2) grid level                               166.7
 QS|                           3) grid level                                55.6
 QS|                           4) grid level                                18.5
 QS| Grid level progression factor:                                          3.0
 QS| Relative density cutoff [a.u.]:                                        30.0
 QS| Interaction thresholds: eps_pgf_orb:                                1.0E-05
 QS|                         eps_filter_matrix:                          0.0E+00
 QS|                         eps_core_charge:                            1.0E-12
 QS|                         eps_rho_gspace:                             1.0E-10
 QS|                         eps_rho_rspace:                             1.0E-10
 QS|                         eps_gvg_rspace:                             1.0E-05
 QS|                         eps_ppl:                                    1.0E-02
 QS|                         eps_ppnl:                                   1.0E-07


 ATOMIC KIND INFORMATION

  1. Atomic kind: F                                     Number of atoms:       1

     Orbital Basis Set                                   TZVP-MOLOPT-SCAN-GTH-q7

       Number of orbital shell sets:                                           1
       Number of orbital shells:                                               7
       Number of primitive Cartesian functions:                                5
       Number of Cartesian basis functions:                                   18
       Number of spherical basis functions:                                   17
       Norm type:                                                              2

       Normalised Cartesian orbitals:

                        Set   Shell   Orbital            Exponent    Coefficient

                          1       1    2s               13.166455       0.444811
                                                         4.678636       0.203936
                                                         1.681884      -0.373508
                                                         0.583935      -0.259331
                                                         0.185712      -0.056029

                          1       2    3s               13.166455      -0.502454
                                                         4.678636      -0.252806
                                                         1.681884       0.335842
                                                         0.583935       0.215045
                                                         0.185712      -0.274623

                          1       3    4s               13.166455      -1.864888
                                                         4.678636      -0.601328
                                                         1.681884      -0.730395
                                                         0.583935       0.164047
                                                         0.185712       0.000360

                          1       4    3px              13.166455      -2.113946
                                                         4.678636      -1.829886
                                                         1.681884      -0.958916
                                                         0.583935      -0.297662
                                                         0.185712      -0.047232
                          1       4    3py              13.166455      -2.113946
                                                         4.678636      -1.829886
                                                         1.681884      -0.958916
                                                         0.583935      -0.297662
                                                         0.185712      -0.047232
                          1       4    3pz              13.166455      -2.113946
                                                         4.678636      -1.829886
                                                         1.681884      -0.958916
                                                         0.583935      -0.297662
                                                         0.185712      -0.047232

                          1       5    4px              13.166455       2.123544
                                                         4.678636       1.392986
                                                         1.681884       1.011036
                                                         0.583935       0.232948
                                                         0.185712      -0.186088
                          1       5    4py              13.166455       2.123544
                                                         4.678636       1.392986
                                                         1.681884       1.011036
                                                         0.583935       0.232948
                                                         0.185712      -0.186088
                          1       5    4pz              13.166455       2.123544
                                                         4.678636       1.392986
                                                         1.681884       1.011036
                                                         0.583935       0.232948
                                                         0.185712      -0.186088

                          1       6    5px              13.166455      -6.630251
                                                         4.678636     -13.203252
                                                         1.681884       5.460045
                                                         0.583935      -0.856136
                                                         0.185712       0.026241
                          1       6    5py              13.166455      -6.630251
                                                         4.678636     -13.203252
                                                         1.681884       5.460045
                                                         0.583935      -0.856136
                                                         0.185712       0.026241
                          1       6    5pz              13.166455      -6.630251
                                                         4.678636     -13.203252
                                                         1.681884       5.460045
                                                         0.583935      -0.856136
                                                         0.185712       0.026241

                          1       7    4dx2             13.166455      -1.218712
                                                         4.678636       0.786429
                                                         1.681884       1.464728
                                                         0.583935       0.453678
                                                         0.185712       0.002884
                          1       7    4dxy             13.166455      -2.110871
                                                         4.678636       1.362135
                                                         1.681884       2.536984
                                                         0.583935       0.785794
                                                         0.185712       0.004996
                          1       7    4dxz             13.166455      -2.110871
                                                         4.678636       1.362135
                                                         1.681884       2.536984
                                                         0.583935       0.785794
                                                         0.185712       0.004996
                          1       7    4dy2             13.166455      -1.218712
                                                         4.678636       0.786429
                                                         1.681884       1.464728
                                                         0.583935       0.453678
                                                         0.185712       0.002884
                          1       7    4dyz             13.166455      -2.110871
                                                         4.678636       1.362135
                                                         1.681884       2.536984
                                                         0.583935       0.785794
                                                         0.185712       0.004996
                          1       7    4dz2             13.166455      -1.218712
                                                         4.678636       0.786429
                                                         1.681884       1.464728
                                                         0.583935       0.453678
                                                         0.185712       0.002884

       Atomic covalent radius [Angstrom]:                                  0.720

       Atomic van der Waals radius [Angstrom]:                             1.470

     GTH Potential information for                                   GTH-SCAN-q7

       Description:                       Goedecker-Teter-Hutter pseudopotential
                                           Goedecker et al., PRB 54, 1703 (1996)
                                          Hartwigsen et al., PRB 58, 3641 (1998)
                                                      Krack, TCA 114, 145 (2005)

       Gaussian exponent of the core charge distribution:              10.972099
       Electronic configuration (s p d ...):                       2   5   0   0

       Parameters of the local part of the GTH pseudopotential:

                          rloc        C1          C2          C3          C4
                        0.213472  -21.468222    3.125912

       Parameters of the non-local part of the GTH pseudopotential:

                   l      r(l)      h(i,j,l)

                   0    0.195665   23.648584


 MOLECULE KIND INFORMATION


 All atoms are their own molecule, skipping detailed information


 TOTAL NUMBERS AND MAXIMUM NUMBERS

  Total number of            - Atomic kinds:                                   1
                             - Atoms:                                          1
                             - Shell sets:                                     1
                             - Shells:                                         7
                             - Primitive Cartesian functions:                  5
                             - Cartesian basis functions:                     18
                             - Spherical basis functions:                     17

  Maximum angular momentum of- Orbital basis functions:                        2
                             - Local part of the GTH pseudopotential:          2
                             - Non-local part of the GTH pseudopotential:      0


 MODULE QUICKSTEP: ATOMIC COORDINATES IN ANGSTROM

   Atom Kind Element         X             Y             Z       Z(eff)     Mass
      1    1 F     9     15.000000     15.000000     15.000000   7.0000  18.9984



 SCF PARAMETERS         Density guess:                                    ATOMIC
                        --------------------------------------------------------
                        max_scf:                                             100
                        max_scf_history:                                       0
                        max_diis:                                              4
                        --------------------------------------------------------
                        eps_scf:                                        1.00E-05
                        eps_scf_history:                                0.00E+00
                        eps_diis:                                       1.00E-01
                        eps_eigval:                                     1.00E-05
                        --------------------------------------------------------
                        level_shift [a.u.]:                             0.000000
                        --------------------------------------------------------
                        Mixing method:                           DIRECT_P_MIXING
                        --------------------------------------------------------
                        No outer SCF

 PW_GRID| Information for grid number                                          1
 PW_GRID| Grid distributed over                                    16 processors
 PW_GRID| Real space group dimensions                                    16    1
 PW_GRID| the grid is blocked:                                                NO
 PW_GRID| Cutoff [a.u.]                                                    500.0
 PW_GRID| spherical cutoff:                                                   NO
 PW_GRID|   Bounds   1           -288     287                Points:         576
 PW_GRID|   Bounds   2           -288     287                Points:         576
 PW_GRID|   Bounds   3           -288     287                Points:         576
 PW_GRID| Volume element (a.u.^3)  0.9534E-03     Volume (a.u.^3)    182205.0337
 PW_GRID| Grid span                                                    FULLSPACE
 PW_GRID|   Distribution                         Average         Max         Min
 PW_GRID|   G-Vectors                         11943936.0    11943936    11943936
 PW_GRID|   G-Rays                               20736.0       20736       20736
 PW_GRID|   Real Space Points                 11943936.0    11943936    11943936

 PW_GRID| Information for grid number                                          2
 PW_GRID| Number of the reference grid                                         1
 PW_GRID| Grid distributed over                                    16 processors
 PW_GRID| Real space group dimensions                                    16    1
 PW_GRID| the grid is blocked:                                                NO
 PW_GRID| Cutoff [a.u.]                                                    166.7
 PW_GRID| spherical cutoff:                                                   NO
 PW_GRID|   Bounds   1           -180     179                Points:         360
 PW_GRID|   Bounds   2           -180     179                Points:         360
 PW_GRID|   Bounds   3           -180     179                Points:         360
 PW_GRID| Volume element (a.u.^3)  0.3905E-02     Volume (a.u.^3)    182205.0337
 PW_GRID| Grid span                                                    FULLSPACE
 PW_GRID|   Distribution                         Average         Max         Min
 PW_GRID|   G-Vectors                          2916000.0     2916720     2915640
 PW_GRID|   G-Rays                                8100.0        8102        8099
 PW_GRID|   Real Space Points                  2916000.0     2980800     2851200

 PW_GRID| Information for grid number                                          3
 PW_GRID| Number of the reference grid                                         1
 PW_GRID| Grid distributed over                                    16 processors
 PW_GRID| Real space group dimensions                                    16    1
 PW_GRID| the grid is blocked:                                                NO
 PW_GRID| Cutoff [a.u.]                                                     55.6
 PW_GRID| spherical cutoff:                                                   NO
 PW_GRID|   Bounds   1            -96      95                Points:         192
 PW_GRID|   Bounds   2            -96      95                Points:         192
 PW_GRID|   Bounds   3            -96      95                Points:         192
 PW_GRID| Volume element (a.u.^3)  0.2574E-01     Volume (a.u.^3)    182205.0337
 PW_GRID| Grid span                                                    FULLSPACE
 PW_GRID|   Distribution                         Average         Max         Min
 PW_GRID|   G-Vectors                           442368.0      442560      442176
 PW_GRID|   G-Rays                                2304.0        2305        2303
 PW_GRID|   Real Space Points                   442368.0      442368      442368

 PW_GRID| Information for grid number                                          4
 PW_GRID| Number of the reference grid                                         1
 PW_GRID| Grid distributed over                                    16 processors
 PW_GRID| Real space group dimensions                                    16    1
 PW_GRID| the grid is blocked:                                                NO
 PW_GRID| Cutoff [a.u.]                                                     18.5
 PW_GRID| spherical cutoff:                                                   NO
 PW_GRID|   Bounds   1            -60      59                Points:         120
 PW_GRID|   Bounds   2            -60      59                Points:         120
 PW_GRID|   Bounds   3            -60      59                Points:         120
 PW_GRID| Volume element (a.u.^3)  0.1054         Volume (a.u.^3)    182205.0337
 PW_GRID| Grid span                                                    FULLSPACE
 PW_GRID|   Distribution                         Average         Max         Min
 PW_GRID|   G-Vectors                           108000.0      108240      107880
 PW_GRID|   G-Rays                                 900.0         902         899
 PW_GRID|   Real Space Points                   108000.0      115200      100800

 POISSON| Solver                                                        ANALYTIC
 POISSON| Periodicity                                                       NONE

 RS_GRID| Information for grid number                                          1
 RS_GRID|   Bounds   1           -288     287                Points:         576
 RS_GRID|   Bounds   2           -288     287                Points:         576
 RS_GRID|   Bounds   3           -288     287                Points:         576
 RS_GRID| Real space distribution over                                  4 groups
 RS_GRID| Real space distribution along direction                              2
 RS_GRID| Border size                                                         23
 RS_GRID| Real space distribution over                                  4 groups
 RS_GRID| Real space distribution along direction                              3
 RS_GRID| Border size                                                         23
 RS_GRID|   Distribution                         Average         Max         Min
 RS_GRID|   Planes                                 190.0         190         190
 RS_GRID|   Distribution                         Average         Max         Min
 RS_GRID|   Planes                                 190.0         190         190

 RS_GRID| Information for grid number                                          2
 RS_GRID|   Bounds   1           -180     179                Points:         360
 RS_GRID|   Bounds   2           -180     179                Points:         360
 RS_GRID|   Bounds   3           -180     179                Points:         360
 RS_GRID| Real space distribution over                                  4 groups
 RS_GRID| Real space distribution along direction                              2
 RS_GRID| Border size                                                         28
 RS_GRID| Real space distribution over                                  4 groups
 RS_GRID| Real space distribution along direction                              3
 RS_GRID| Border size                                                         28
 RS_GRID|   Distribution                         Average         Max         Min
 RS_GRID|   Planes                                 146.0         146         146
 RS_GRID|   Distribution                         Average         Max         Min
 RS_GRID|   Planes                                 146.0         146         146

 RS_GRID| Information for grid number                                          3
 RS_GRID|   Bounds   1            -96      95                Points:         192
 RS_GRID|   Bounds   2            -96      95                Points:         192
 RS_GRID|   Bounds   3            -96      95                Points:         192
 RS_GRID| Real space fully replicated
 RS_GRID| Group size                                                           1

 RS_GRID| Information for grid number                                          4
 RS_GRID|   Bounds   1            -60      59                Points:         120
 RS_GRID|   Bounds   2            -60      59                Points:         120
 RS_GRID|   Bounds   3            -60      59                Points:         120
 RS_GRID| Real space fully replicated
 RS_GRID| Group size                                                           1

 Extrapolation method: initial_guess

 Atomic guess: The first density matrix is obtained in terms of atomic orbitals
               and electronic configurations assigned to each atomic kind

 Guess for atomic kind: F

 Electronic structure
    Total number of core electrons                                          2.00
    Total number of valence electrons                                       7.00
    Total number of electrons                                               9.00
    Multiplicity                                                   not specified
    S   [  2.00] 2.00
    P      5.00


 *******************************************************************************
                  Iteration          Convergence                     Energy [au]
 *******************************************************************************
                          1         1.28404                     -23.721982260823
                          2        0.967140                     -23.745199214477
                          3        0.177678E-01                 -23.912277605604
                          4        0.501134E-02                 -23.912319183814
                          5        0.565229E-04                 -23.912322958237
                          6        0.248892E-04                 -23.912322958650
                          7        0.375431E-07                 -23.912322958749

 Energy components [Hartree]           Total Energy ::          -23.912322958749
                                        Band Energy ::           -4.137765617489
                                     Kinetic Energy ::           18.745855544912
                                   Potential Energy ::          -42.658178503662
                                      Virial (-V/T) ::            2.275605847994
                                        Core Energy ::          -40.690899234886
                                          XC Energy ::           -4.360074555418
                                     Coulomb Energy ::           21.138650831555
                       Total Pseudopotential Energy ::          -59.470866642662
                       Local Pseudopotential Energy ::          -61.156697242738
                    Nonlocal Pseudopotential Energy ::            1.685830600076
                                        Confinement ::            0.341118628638

 Orbital energies  State     L     Occupation   Energy[a.u.]          Energy[eV]

                       1     0          2.000      -1.072444          -29.182679

                       1     1          5.000      -0.398576          -10.845794


 Total Electron Density at R=0:                                         0.000006

 Spin 1
 Re-scaling the density matrix to get the right number of electrons for spin 1
                  # Electrons              Trace(P)               Scaling factor
                            4                 3.500                        1.143

 Spin 2
 Re-scaling the density matrix to get the right number of electrons for spin 2
                  # Electrons              Trace(P)               Scaling factor
                            3                 3.500                        0.857

 Spin 1

 Number of electrons:                                                          4
 Number of occupied orbitals:                                                  4
 Number of molecular orbitals:                                                 4

 Spin 2

 Number of electrons:                                                          3
 Number of occupied orbitals:                                                  3
 Number of molecular orbitals:                                                 3

 Number of orbital functions:                                                 17
 Number of independent orbital functions:                                     17


 SCF WAVEFUNCTION OPTIMIZATION

  Step     Update method      Time    Convergence         Total energy    Change
  ------------------------------------------------------------------------------
     1 P_Mix/Diag. 0.40E+00    9.8     0.56720739       -24.0666577395 -2.41E+01
     2 P_Mix/Diag. 0.40E+00   17.3     0.34255349       -24.0733482396 -6.69E-03
     3 P_Mix/Diag. 0.40E+00   17.3     0.20524575       -24.0905367478 -1.72E-02
     4 P_Mix/Diag. 0.40E+00   17.1     0.12490218       -24.1055606319 -1.50E-02
     5 P_Mix/Diag. 0.40E+00   17.0     0.07623181       -24.1154599852 -9.90E-03
     6 DIIS/Diag.  0.13E-01   16.9     0.04843158       -24.1216923893 -6.23E-03
     7 DIIS/Diag.  0.15E-01   17.1     0.00035830       -24.1312288841 -9.54E-03
     8 DIIS/Diag.  0.17E-01   17.1     0.00088057       -24.1312311139 -2.23E-06
     9 DIIS/Diag.  0.18E-01   17.0     0.00177524       -24.1312095559  2.16E-05
    10 DIIS/Diag.  0.64E-02   17.2     0.00439945       -24.1312171564 -7.60E-06
    11 DIIS/Diag.  0.26E-02   16.8     0.00586304       -24.1312827225 -6.56E-05
    12 DIIS/Diag.  0.17E-02   16.9     0.00415443       -24.1313079000 -2.52E-05
    13 DIIS/Diag.  0.24E-02   16.8     0.00194043       -24.1313225787 -1.47E-05
    14 DIIS/Diag.  0.30E-02   16.8     0.00033410       -24.1313286944 -6.12E-06
    15 DIIS/Diag.  0.31E-02   17.0     0.00199235       -24.1313300497 -1.36E-06
    16 DIIS/Diag.  0.36E-02   16.9     0.00067867       -24.1313357637 -5.71E-06
    17 DIIS/Diag.  0.35E-02   16.9     0.00114099       -24.1313328008  2.96E-06
    18 DIIS/Diag.  0.46E-02   17.0     0.00876716       -24.1313271186  5.68E-06
    19 DIIS/Diag.  0.14E-01   16.8     0.00014362       -24.1313699417 -4.28E-05
    20 DIIS/Diag.  0.15E-01   17.1     0.00594345       -24.1313723943 -2.45E-06
    21 DIIS/Diag.  0.64E-02   17.0     0.00178503       -24.1313277143  4.47E-05
    22 DIIS/Diag.  0.14E-01   17.0     0.00134330       -24.1313104493  1.73E-05
    23 DIIS/Diag.  0.22E-01   17.2     0.00386749       -24.1312819935  2.85E-05
    24 DIIS/Diag.  0.51E-02   17.0     0.00156957       -24.1313392416 -5.72E-05
    25 DIIS/Diag.  0.46E-02   17.1     0.00049819       -24.1313427478 -3.51E-06
    26 DIIS/Diag.  0.46E-02   17.0     0.00196216       -24.1313453318 -2.58E-06
    27 DIIS/Diag.  0.72E-02   17.1     0.00177829       -24.1313556825 -1.04E-05
    28 DIIS/Diag.  0.43E-02   16.9     0.00148641       -24.1313459827  9.70E-06
    29 DIIS/Diag.  0.49E-02   16.9     0.00133528       -24.1313380182  7.96E-06
    30 DIIS/Diag.  0.95E-02   16.9     0.00607607       -24.1313270890  1.09E-05
    31 DIIS/Diag.  0.18E-01   16.9     0.00317137       -24.1313747621 -4.77E-05
    32 DIIS/Diag.  0.47E-02   16.9     0.00031921       -24.1313460925  2.87E-05
    33 DIIS/Diag.  0.43E-02   17.1     0.00056766       -24.1313445318  1.56E-06
    34 DIIS/Diag.  0.45E-02   17.0     0.00065581       -24.1313419367  2.60E-06
    35 DIIS/Diag.  0.54E-02   17.1     0.00420843       -24.1313384191  3.52E-06
    36 DIIS/Diag.  0.13E-01   17.3     0.00352243       -24.1313669348 -2.85E-05
    37 DIIS/Diag.  0.46E-02   17.1     0.00135391       -24.1313420776  2.49E-05
    38 DIIS/Diag.  0.73E-02   17.0     0.00144161       -24.1313337216  8.36E-06
    39 DIIS/Diag.  0.14E-01   16.9     0.00004014       -24.1313183000  1.54E-05
    40 DIIS/Diag.  0.14E-01   16.9     0.00265293       -24.1313188309 -5.31E-07
    41 DIIS/Diag.  0.55E-02   16.8     0.00072009       -24.1313408923 -2.21E-05
    42 DIIS/Diag.  0.49E-02   16.8     0.00251095       -24.1313445386 -3.65E-06
    43 DIIS/Diag.  0.11E-01   17.0     0.00448205       -24.1313614096 -1.69E-05
    44 DIIS/Diag.  0.85E-01   16.9     0.00680465       -24.1312931213  6.83E-05
    45 DIIS/Diag.  0.45E-02   17.1     0.00201130       -24.1313455146 -5.24E-05
    46 DIIS/Diag.  0.67E-02   17.0     0.00345173       -24.1313350611  1.05E-05
    47 DIIS/Diag.  0.26E-01   17.1     0.00573750       -24.1312805124  5.45E-05
    48 DIIS/Diag.  0.54E-02   17.1     0.00072618       -24.1313467880 -6.63E-05
    49 DIIS/Diag.  0.65E-02   17.0     0.00028538       -24.1313512683 -4.48E-06
    50 DIIS/Diag.  0.71E-02   16.7     0.00097723       -24.1313493549  1.91E-06
    51 DIIS/Diag.  0.66E-02   17.1     0.00223196       -24.1313553326 -5.98E-06
    52 DIIS/Diag.  0.56E-02   17.2     0.00066295       -24.1313423398  1.30E-05
    53 DIIS/Diag.  0.55E-02   17.0     0.00305865       -24.1313437217 -1.38E-06
    54 DIIS/Diag.  0.13E-01   17.0     0.00540492       -24.1313264027  1.73E-05
    55 DIIS/Diag.  0.13E-01   17.2     0.00476666       -24.1313638226 -3.74E-05
    56 DIIS/Diag.  0.77E-02   16.9     0.00626409       -24.1313332778  3.05E-05
    57 DIIS/Diag.  0.47E-01   17.3     0.00655210       -24.1311655120  1.68E-04
    58 DIIS/Diag.  0.92E-01   17.1     0.00331722       -24.1307084180  4.57E-04
    59 DIIS/Diag.  0.70E-01   17.0     0.01085214       -24.1309762488 -2.68E-04
    60 DIIS/Diag.  0.58E-02   16.9     0.00026728       -24.1313395987 -3.63E-04
    61 DIIS/Diag.  0.54E-02   16.9     0.00011057       -24.1313413145 -1.72E-06
    62 DIIS/Diag.  0.54E-02   16.9     0.00021604       -24.1313417246 -4.10E-07
    63 DIIS/Diag.  0.49E-02   16.8     0.00374066       -24.1313430305 -1.31E-06
    64 DIIS/Diag.  0.17E-01   16.8     0.00490682       -24.1313747045 -3.17E-05
    65 DIIS/Diag.  0.60E-02   16.9     0.00232969       -24.1313368558  3.78E-05
    66 DIIS/Diag.  0.17E-01   17.0     0.00044567       -24.1313112735  2.56E-05
    67 DIIS/Diag.  0.19E-01   17.0     0.00025235       -24.1313033362  7.94E-06
    68 DIIS/Diag.  0.21E-01   16.9     0.00326659       -24.1312984306  4.91E-06
    69 DIIS/Diag.  0.62E-02   16.9     0.00059760       -24.1313377869 -3.94E-05
    70 DIIS/Diag.  0.53E-02   16.8     0.00130470       -24.1313411821 -3.40E-06
    71 DIIS/Diag.  0.62E-02   16.9     0.00068219       -24.1313476263 -6.44E-06
    72 DIIS/Diag.  0.62E-02   16.9     0.00050322       -24.1313516687 -4.04E-06
    73 DIIS/Diag.  0.68E-02   17.0     0.00621951       -24.1313478326  3.84E-06
    74 DIIS/Diag.  0.32E-01   16.9     0.00721528       -24.1312676454  8.02E-05
    75 DIIS/Diag.  0.61E-02   17.0     0.00099166       -24.1313549425 -8.73E-05
    76 DIIS/Diag.  0.12E-01   17.0     0.00054573       -24.1313645722 -9.63E-06
    77 DIIS/Diag.  0.16E-01   17.2     0.00253002       -24.1313732661 -8.69E-06
    78 DIIS/Diag.  0.66E-02   17.0     0.00030102       -24.1313490122  2.43E-05
    79 DIIS/Diag.  0.52E-02   16.8     0.00129250       -24.1313473073  1.70E-06
    80 DIIS/Diag.  0.39E-02   16.8     0.00041329       -24.1313413147  5.99E-06
    81 DIIS/Diag.  0.45E-02   16.9     0.00735759       -24.1313389921  2.32E-06
    82 DIIS/Diag.  0.88E-01   16.9     0.00039151       -24.1313575344 -1.85E-05
    83 DIIS/Diag.  0.92E-01   16.9     0.00385898       -24.1314056668 -4.81E-05
    84 DIIS/Diag.  0.68E-02   17.1     0.00790213       -24.1313556490  5.00E-05
    85 DIIS/Diag.  0.30E-01   17.0     0.01082278       -24.1312601250  9.55E-05
    86 DIIS/Diag.  0.60E-01   17.0     0.00146233       -24.1314165015 -1.56E-04
    87 DIIS/Diag.  0.17E-01   17.1     0.00039168       -24.1313718671  4.46E-05
    88 DIIS/Diag.  0.13E-01   17.1     0.00287907       -24.1313654199  6.45E-06
    89 DIIS/Diag.  0.86E-01   17.0     0.00403236       -24.1313974228 -3.20E-05
    90 DIIS/Diag.  0.84E-02   17.1     0.00049911       -24.1313563891  4.10E-05
    91 DIIS/Diag.  0.42E-02   17.3     0.00019218       -24.1313523997  3.99E-06
    92 DIIS/Diag.  0.43E-02   16.9     0.00013395       -24.1313519448  4.55E-07
    93 DIIS/Diag.  0.51E-02   17.0     0.00036188       -24.1313517632  1.82E-07
    94 DIIS/Diag.  0.57E-02   17.2     0.00085655       -24.1313527816 -1.02E-06
    95 DIIS/Diag.  0.11E-01   17.0     0.00182961       -24.1313591883 -6.41E-06
    96 DIIS/Diag.  0.50E-02   17.2     0.00064328       -24.1313463944  1.28E-05
    97 DIIS/Diag.  0.46E-02   17.3     0.00089811       -24.1313443028  2.09E-06
    98 DIIS/Diag.  0.53E-02   17.2     0.00199854       -24.1313396833  4.62E-06
    99 DIIS/Diag.  0.12E-01   17.1     0.00275163       -24.1313229718  1.67E-05
   100 DIIS/Diag.  0.48E-02   17.3     0.00085223       -24.1313437173 -2.07E-05

  Leaving inner SCF loop after reaching   100 steps.


  Electronic density on regular grids:         -6.9999999998        0.0000000002
  Core density on regular grids:                6.9999999999       -0.0000000001
  Total charge density on r-space grids:        0.0000000001
  Total charge density g-space grids:           0.0000000001

  Overlap energy of the core charge distribution:               0.00000000000000
  Self energy of the core charge distribution:                -64.75167457799022
  Core Hamiltonian energy:                                     17.84897216986068
  Hartree energy:                                              27.37368396638801
  Exchange-correlation energy:                                 -4.60232527554011

  Total energy:                                               -24.13134371728164

 *******************************************************************************
 *   ___                                                                       *
 *  /   \                                                                      *
 * [ABORT]                                                                     *
 *  \___/     SCF run NOT converged. To continue the calculation regardless,   *
 *    |             please set the keyword IGNORE_CONVERGENCE_FAILURE.         *
 *  O/|                                                                        *
 * /| |                                                                        *
 * / \                                                            qs_scf.F:702 *
 *******************************************************************************


 ===== Routine Calling Stack ===== 

            3 scf_env_do_scf
            2 qs_energies
            1 CP2K
