&GLOBAL
  PRINT_LEVEL MEDIUM
  PROJECT_NAME af0759ee460ba0a44ad2d25894407679e9bfb206
  RUN_TYPE ENERGY
&END GLOBAL
&FORCE_EVAL
  METHOD Quickstep
  &DFT
    BASIS_SET_FILE_NAME BASIS_MOLOPT_UZH
    POTENTIAL_FILE_NAME POTENTIAL_UZH
    CHARGE 0
    MULTIPLICITY 1
    UKS FALSE
    &MGRID
      CUTOFF 1000
      REL_CUTOFF 60
      NGRIDS 4
    &END MGRID
    &POISSON
      PERIODIC NONE
      POISSON_SOLVER ANALYTIC
    &END POISSON
    &QS
      EPS_DEFAULT 1e-10
    &END QS
    &SCF
      EPS_SCF 1e-05
      MAX_SCF 100
      SCF_GUESS ATOMIC
      &DIAGONALIZATION
      &END DIAGONALIZATION
      &MIXING
        METHOD DIRECT_P_MIXING
        ALPHA 0.4
        NMIXING 2
      &END MIXING
    &END SCF
    &XC
      &XC_FUNCTIONAL
        &GAUXC
          FUNCTIONAL PBE
          MODEL aug-s0-funv2-cpu.fun
          GRID FINE
          PRUNING_SCHEME ROBUST
          RADIAL_QUADRATURE MURAKNOWLES
        &END GAUXC
      &END XC_FUNCTIONAL
    &END XC
    &PRINT
      &MO
        ENERGIES T
        OCCNUMS  T
        &EACH
          QS_SCF 0
        &END
      &END
    &END
  &END DFT
  &SUBSYS
    &CELL
      ABC 30.0000 30.0000 33.0000
      ALPHA_BETA_GAMMA 90.0000 90.0000 90.0000
      PERIODIC NONE
    &END CELL
    &TOPOLOGY
      &CENTER_COORDINATES
      &END
    &END TOPOLOGY
    &COORD
      Cl        0.0000000000        0.0000000000       -1.0058499983
      Cl        0.0000000000        0.0000000000        1.0058499983
    &END COORD
    &KIND Cl
      BASIS_SET TZVP-MOLOPT-SCAN-GTH-q7
      POTENTIAL GTH-SCAN-q7
    &END KIND
  &END SUBSYS
&END FORCE_EVAL

================================================================================
=== END OF CP2K INPUT / START OF CP2K OUTPUT ===
================================================================================

 DBCSR| CPU Multiplication driver                                           BLAS (U)
 DBCSR| Multrec recursion limit                                              512 (U)
 DBCSR| Multiplication stack size                                           1000 (D)
 DBCSR| Maximum elements for images                                    UNLIMITED (U)
 DBCSR| Multiplicative factor virtual images                                   1 (U)
 DBCSR| Use multiplication densification                                       T (D)
 DBCSR| Multiplication size stacks                                             3 (U)
 DBCSR| Use memory pool for CPU allocation                                     F (U)
 DBCSR| Number of 3D layers                                               SINGLE (U)
 DBCSR| Use MPI memory allocation                                              F (U)
 DBCSR| Use RMA algorithm                                                      F (U)
 DBCSR| Use Communication thread                                               T (U)
 DBCSR| Communication thread load                                             87 (D)
 DBCSR| MPI: My process id                                                     0
 DBCSR| MPI: Number of processes                                              16
 DBCSR| OMP: Current number of threads                                         1
 DBCSR| OMP: Max number of threads                                             1
 DBCSR| Split modifier for TAS multiplication algorithm                  1.0E+00 (U)


  **** **** ******  **  PROGRAM STARTED AT               2026-08-13 11:46:02.432
 ***** ** ***  *** **   PROGRAM STARTED ON        eb3791e2ef3243b6944400b65b9622
 **    ****   ******    PROGRAM STARTED BY                             <unknown>
 ***** **    ** ** **   PROGRAM PROCESS ID                                   538
  **** **  *******  **  PROGRAM STARTED IN                    /tmp/cp2k_p96unvx_

 CP2K| version string:                                       CP2K version 2026.2
 CP2K| source code revision number:                                  git:c92cc08
 CP2K| cp2kflags: omp libint fftw3 libxc gauxc gauxc_mpi gauxc_onedft gauxc_host
 CP2K|             parallel scalapack mpi_f08 spglib sirius libtorch hdf5
 CP2K| is freely available from                            https://www.cp2k.org/
 CP2K| Program compiled at                                   2026-08-13 02:05:42
 CP2K| Program compiled on                                                      
 CP2K| Program compiled for                                               x86_64
 CP2K| Data directory path                             /opt/cp2k/share/cp2k/data
 CP2K| Input file name                                            cp2k_input.inp

 GLOBAL| Force Environment number                                              1
 GLOBAL| Basis set file name                                    BASIS_MOLOPT_UZH
 GLOBAL| Potential file name                                       POTENTIAL_UZH
 GLOBAL| MM Potential file name                                     MM_POTENTIAL
 GLOBAL| Coordinate file name                                      __STD_INPUT__
 GLOBAL| Method name                                                        CP2K
 GLOBAL| Project name                   af0759ee460ba0a44ad2d25894407679e9bfb206
 GLOBAL| Run type                                                         ENERGY
 GLOBAL| FFT library                                                       FFTW3
 GLOBAL| Diagonalization library                                       ScaLAPACK
 GLOBAL| Cholesky decomposition library                                ScaLAPACK
 GLOBAL| DGEMM library                                                      BLAS
 GLOBAL| Direct generalized diagonalization requested                          F
 GLOBAL| Orthonormality check for eigenvectors                          DISABLED
 GLOBAL| Matrix multiplication library                                 ScaLAPACK
 GLOBAL| All-to-all communication in single precision                          F
 GLOBAL| FFTs using library dependent lengths                                  F
 GLOBAL| Grid backend                                                       AUTO
 GLOBAL| Global print level                                               MEDIUM
 GLOBAL| MPI I/O enabled                                                       T
 GLOBAL| Total number of message passing processes                            16
 GLOBAL| Number of distributed systems (nodes)                                 1
 GLOBAL| Number of threads for this process                                    1
 GLOBAL| This output is from process                                           0
 GLOBAL| OpenMP stack size per thread (OMP_STACKSIZE)                        16M
 GLOBAL| CPU model name                          AMD EPYC 9V74 80-Core Processor
 GLOBAL| CPUID                                                              1002

 MEMORY| system memory details [Kb]
 MEMORY|                        rank 0           min           max       average
 MEMORY| MemTotal            263924008     263924008     263924008     263924008
 MEMORY| MemFree             238855360     238855360     238855360     238855360
 MEMORY| Buffers                354244        354244        354244        354244
 MEMORY| Cached               18093116      18093116      18093116      18093116
 MEMORY| Slab                  1464628       1464628       1464628       1464628
 MEMORY| SReclaimable          1124412       1124412       1124412       1124412
 MEMORY| MemLikelyFree       258427132     258427132     258427132     258427132


 *** Fundamental physical constants (SI units) ***

 *** Literature: B. J. Mohr and B. N. Taylor,
 ***             CODATA recommended values of the fundamental physical
 ***             constants: 2006, Web Version 5.1
 ***             http://physics.nist.gov/constants

 Speed of light in vacuum [m/s]                             2.99792458000000E+08
 Magnetic constant or permeability of vacuum [N/A**2]       1.25663706143592E-06
 Electric constant or permittivity of vacuum [F/m]          8.85418781762039E-12
 Planck constant (h) [J*s]                                  6.62606896000000E-34
 Planck constant (h-bar) [J*s]                              1.05457162825177E-34
 Elementary charge [C]                                      1.60217648700000E-19
 Electron mass [kg]                                         9.10938215000000E-31
 Electron g factor [ ]                                     -2.00231930436220E+00
 Proton mass [kg]                                           1.67262163700000E-27
 Fine-structure constant                                    7.29735253760000E-03
 Rydberg constant [1/m]                                     1.09737315685270E+07
 Avogadro constant [1/mol]                                  6.02214179000000E+23
 Boltzmann constant [J/K]                                   1.38065040000000E-23
 Atomic mass unit [kg]                                      1.66053878200000E-27
 Bohr radius [m]                                            5.29177208590000E-11

 *** Conversion factors ***

 [u] -> [a.u.]                                              1.82288848426455E+03
 [Angstrom] -> [Bohr] = [a.u.]                              1.88972613288564E+00
 [a.u.] = [Bohr] -> [Angstrom]                              5.29177208590000E-01
 [a.u.] -> [s]                                              2.41888432650478E-17
 [a.u.] -> [fs]                                             2.41888432650478E-02
 [a.u.] -> [J]                                              4.35974393937059E-18
 [a.u.] -> [N]                                              8.23872205491840E-08
 [a.u.] -> [K]                                              3.15774647902944E+05
 [a.u.] -> [kJ/mol]                                         2.62549961709828E+03
 [a.u.] -> [kcal/mol]                                       6.27509468713739E+02
 [a.u.] -> [Pa]                                             2.94210107994716E+13
 [a.u.] -> [bar]                                            2.94210107994716E+08
 [a.u.] -> [atm]                                            2.90362800883016E+08
 [a.u.] -> [eV]                                             2.72113838565563E+01
 [a.u.] -> [Hz]                                             6.57968392072181E+15
 [a.u.] -> [1/cm] (wave numbers)                            2.19474631370540E+05
 [a.u./Bohr**2] -> [1/cm]                                   5.14048714338585E+03
 

 CELL| Volume [angstrom^3]:                                         29700.000000
 CELL| Vector a [angstrom]:      30.000     0.000     0.000   |a| =    30.000000
 CELL| Vector b [angstrom]:       0.000    30.000     0.000   |b| =    30.000000
 CELL| Vector c [angstrom]:       0.000     0.000    33.000   |c| =    33.000000
 CELL| Angle (b,c), alpha [degree]:                                    90.000000
 CELL| Angle (a,c), beta  [degree]:                                    90.000000
 CELL| Angle (a,b), gamma [degree]:                                    90.000000
 CELL| Numerically orthorhombic:                                             YES
 CELL| Periodicity                                                          NONE

 CELL_REF| Volume [angstrom^3]:                                     29700.000000
 CELL_REF| Vector a [angstrom    30.000     0.000     0.000   |a| =    30.000000
 CELL_REF| Vector b [angstrom     0.000    30.000     0.000   |b| =    30.000000
 CELL_REF| Vector c [angstrom     0.000     0.000    33.000   |c| =    33.000000
 CELL_REF| Angle (b,c), alpha [degree]:                                90.000000
 CELL_REF| Angle (a,c), beta  [degree]:                                90.000000
 CELL_REF| Angle (a,b), gamma [degree]:                                90.000000
 CELL_REF| Numerically orthorhombic:                                         YES
 CELL_REF| Periodicity                                                      NONE

 GENERATE|  Preliminary Number of Bonds generated:                             0
 GENERATE|  Achieved consistency in connectivity generation.

 *******************************************************************************
 *******************************************************************************
 **                                                                           **
 **     #####                         ##              ##                      **
 **    ##   ##            ##          ##              ##                      **
 **   ##     ##                       ##            ######                    **
 **   ##     ##  ##   ##  ##   #####  ##  ##   ####   ##    #####    #####    **
 **   ##     ##  ##   ##  ##  ##      ## ##   ##      ##   ##   ##  ##   ##   **
 **   ##  ## ##  ##   ##  ##  ##      ####     ###    ##   ######   ######    **
 **    ##  ###   ##   ##  ##  ##      ## ##      ##   ##   ##       ##        **
 **     #######   #####   ##   #####  ##  ##  ####    ##    #####   ##        **
 **           ##                                                    ##        **
 **                                                                           **
 **                                                ... make the atoms dance   **
 **                                                                           **
 **            Copyright (C) by CP2K developers group (2000-2026)             **
 **                      J. Chem. Phys. 152, 194103 (2020)                    **
 **                                                                           **
 *******************************************************************************

 DFT| Spin restricted Kohn-Sham (RKS) calculation                            RKS
 DFT| Multiplicity                                                             1
 DFT| Number of spin states                                                    1
 DFT| Charge                                                                   0
 DFT| Self-interaction correction (SIC)                                       NO
 DFT| Cutoffs: density                                              1.000000E-10
 DFT|          gradient                                             1.000000E-10
 DFT|          tau                                                  1.000000E-10
 DFT|          cutoff_smoothing_range                               0.000000E+00
 DFT| XC density smoothing                                                  NONE
 DFT| XC derivatives                                                          PW

 FUNCTIONAL| GAUXC:
 FUNCTIONAL| Functional computed by GauXC Skala model aug-s0-funv2-cpu.fun      


 QS| Method:                                                                 GPW
 QS| Density plane wave grid type                        NON-SPHERICAL FULLSPACE
 QS| Number of grid levels:                                                    4
 QS| Density cutoff [a.u.]:                                                500.0
 QS| Multi grid cutoff [a.u.]: 1) grid level                               500.0
 QS|                           2) grid level                               166.7
 QS|                           3) grid level                                55.6
 QS|                           4) grid level                                18.5
 QS| Grid level progression factor:                                          3.0
 QS| Relative density cutoff [a.u.]:                                        30.0
 QS| Interaction thresholds: eps_pgf_orb:                                1.0E-05
 QS|                         eps_filter_matrix:                          0.0E+00
 QS|                         eps_core_charge:                            1.0E-12
 QS|                         eps_rho_gspace:                             1.0E-10
 QS|                         eps_rho_rspace:                             1.0E-10
 QS|                         eps_gvg_rspace:                             1.0E-05
 QS|                         eps_ppl:                                    1.0E-02
 QS|                         eps_ppnl:                                   1.0E-07


 ATOMIC KIND INFORMATION

  1. Atomic kind: Cl                                    Number of atoms:       2

     Orbital Basis Set                                   TZVP-MOLOPT-SCAN-GTH-q7

       Number of orbital shell sets:                                           1
       Number of orbital shells:                                               7
       Number of primitive Cartesian functions:                                4
       Number of Cartesian basis functions:                                   18
       Number of spherical basis functions:                                   17
       Norm type:                                                              2

       Normalised Cartesian orbitals:

                        Set   Shell   Orbital            Exponent    Coefficient

                          1       1    2s                1.990311       0.553567
                                                         1.465019      -0.335082
                                                         0.406554      -0.193469
                                                         0.133703      -0.084795

                          1       2    3s                1.990311       0.542077
                                                         1.465019       0.196337
                                                         0.406554      -0.540548
                                                         0.133703       0.272824

                          1       3    4s                1.990311      -0.144377
                                                         1.465019      -1.031705
                                                         0.406554       0.087725
                                                         0.133703       0.058245

                          1       4    3px               1.990311       0.952589
                                                         1.465019      -0.976975
                                                         0.406554      -0.277977
                                                         0.133703      -0.041264
                          1       4    3py               1.990311       0.952589
                                                         1.465019      -0.976975
                                                         0.406554      -0.277977
                                                         0.133703      -0.041264
                          1       4    3pz               1.990311       0.952589
                                                         1.465019      -0.976975
                                                         0.406554      -0.277977
                                                         0.133703      -0.041264

                          1       5    4px               1.990311       0.721240
                                                         1.465019      -0.521030
                                                         0.406554      -0.232610
                                                         0.133703       0.147705
                          1       5    4py               1.990311       0.721240
                                                         1.465019      -0.521030
                                                         0.406554      -0.232610
                                                         0.133703       0.147705
                          1       5    4pz               1.990311       0.721240
                                                         1.465019      -0.521030
                                                         0.406554      -0.232610
                                                         0.133703       0.147705

                          1       6    5px               1.990311      -1.056793
                                                         1.465019      -2.017277
                                                         0.406554       0.200798
                                                         0.133703       0.007744
                          1       6    5py               1.990311      -1.056793
                                                         1.465019      -2.017277
                                                         0.406554       0.200798
                                                         0.133703       0.007744
                          1       6    5pz               1.990311      -1.056793
                                                         1.465019      -2.017277
                                                         0.406554       0.200798
                                                         0.133703       0.007744

                          1       7    4dx2              1.990311       0.501660
                                                         1.465019       0.640939
                                                         0.406554       0.258323
                                                         0.133703       0.006080
                          1       7    4dxy              1.990311       0.868900
                                                         1.465019       1.110139
                                                         0.406554       0.447429
                                                         0.133703       0.010530
                          1       7    4dxz              1.990311       0.868900
                                                         1.465019       1.110139
                                                         0.406554       0.447429
                                                         0.133703       0.010530
                          1       7    4dy2              1.990311       0.501660
                                                         1.465019       0.640939
                                                         0.406554       0.258323
                                                         0.133703       0.006080
                          1       7    4dyz              1.990311       0.868900
                                                         1.465019       1.110139
                                                         0.406554       0.447429
                                                         0.133703       0.010530
                          1       7    4dz2              1.990311       0.501660
                                                         1.465019       0.640939
                                                         0.406554       0.258323
                                                         0.133703       0.006080

       Atomic covalent radius [Angstrom]:                                  0.990

       Atomic van der Waals radius [Angstrom]:                             1.750

     GTH Potential information for                                   GTH-SCAN-q7

       Description:                       Goedecker-Teter-Hutter pseudopotential
                                           Goedecker et al., PRB 54, 1703 (1996)
                                          Hartwigsen et al., PRB 58, 3641 (1998)
                                                      Krack, TCA 114, 145 (2005)

       Gaussian exponent of the core charge distribution:               3.057284
       Electronic configuration (s p d ...):                       2   5   0   0

       Parameters of the local part of the GTH pseudopotential:

                          rloc        C1          C2          C3          C4
                        0.404406   -6.394753

       Parameters of the non-local part of the GTH pseudopotential:

                   l      r(l)      h(i,j,l)

                   0    0.339247   15.226939   -4.934521
                                   -4.934521    6.367374
                   1    0.377245    4.332916


 MOLECULE KIND INFORMATION


 All atoms are their own molecule, skipping detailed information


 TOTAL NUMBERS AND MAXIMUM NUMBERS

  Total number of            - Atomic kinds:                                   1
                             - Atoms:                                          2
                             - Shell sets:                                     2
                             - Shells:                                        14
                             - Primitive Cartesian functions:                  8
                             - Cartesian basis functions:                     36
                             - Spherical basis functions:                     34

  Maximum angular momentum of- Orbital basis functions:                        2
                             - Local part of the GTH pseudopotential:          0
                             - Non-local part of the GTH pseudopotential:      2


 MODULE QUICKSTEP: ATOMIC COORDINATES IN ANGSTROM

   Atom Kind Element         X             Y             Z       Z(eff)     Mass
      1    1 Cl   17     15.000000     15.000000     15.494150   7.0000  35.4530
      2    1 Cl   17     15.000000     15.000000     17.505850   7.0000  35.4530



 SCF PARAMETERS         Density guess:                                    ATOMIC
                        --------------------------------------------------------
                        max_scf:                                             100
                        max_scf_history:                                       0
                        max_diis:                                              4
                        --------------------------------------------------------
                        eps_scf:                                        1.00E-05
                        eps_scf_history:                                0.00E+00
                        eps_diis:                                       1.00E-01
                        eps_eigval:                                     1.00E-05
                        --------------------------------------------------------
                        level_shift [a.u.]:                             0.000000
                        --------------------------------------------------------
                        Mixing method:                           DIRECT_P_MIXING
                        --------------------------------------------------------
                        No outer SCF

 PW_GRID| Information for grid number                                          1
 PW_GRID| Grid distributed over                                    16 processors
 PW_GRID| Real space group dimensions                                    16    1
 PW_GRID| the grid is blocked:                                                NO
 PW_GRID| Cutoff [a.u.]                                                    500.0
 PW_GRID| spherical cutoff:                                                   NO
 PW_GRID|   Bounds   1           -288     287                Points:         576
 PW_GRID|   Bounds   2           -288     287                Points:         576
 PW_GRID|   Bounds   3           -320     319                Points:         640
 PW_GRID| Volume element (a.u.^3)  0.9439E-03     Volume (a.u.^3)    200425.5371
 PW_GRID| Grid span                                                    FULLSPACE
 PW_GRID|   Distribution                         Average         Max         Min
 PW_GRID|   G-Vectors                         13271040.0    13271040    13271040
 PW_GRID|   G-Rays                               23040.0       23040       23040
 PW_GRID|   Real Space Points                 13271040.0    13271040    13271040

 PW_GRID| Information for grid number                                          2
 PW_GRID| Number of the reference grid                                         1
 PW_GRID| Grid distributed over                                    16 processors
 PW_GRID| Real space group dimensions                                    16    1
 PW_GRID| the grid is blocked:                                                NO
 PW_GRID| Cutoff [a.u.]                                                    166.7
 PW_GRID| spherical cutoff:                                                   NO
 PW_GRID|   Bounds   1           -180     179                Points:         360
 PW_GRID|   Bounds   2           -180     179                Points:         360
 PW_GRID|   Bounds   3           -187     187                Points:         375
 PW_GRID| Volume element (a.u.^3)  0.4124E-02     Volume (a.u.^3)    200425.5371
 PW_GRID| Grid span                                                    FULLSPACE
 PW_GRID|   Distribution                         Average         Max         Min
 PW_GRID|   G-Vectors                          3037500.0     3038040     3036240
 PW_GRID|   G-Rays                                8437.5        8439        8434
 PW_GRID|   Real Space Points                  3037500.0     3105000     2970000

 PW_GRID| Information for grid number                                          3
 PW_GRID| Number of the reference grid                                         1
 PW_GRID| Grid distributed over                                    16 processors
 PW_GRID| Real space group dimensions                                    16    1
 PW_GRID| the grid is blocked:                                                NO
 PW_GRID| Cutoff [a.u.]                                                     55.6
 PW_GRID| spherical cutoff:                                                   NO
 PW_GRID|   Bounds   1            -96      95                Points:         192
 PW_GRID|   Bounds   2            -96      95                Points:         192
 PW_GRID|   Bounds   3           -108     107                Points:         216
 PW_GRID| Volume element (a.u.^3)  0.2517E-01     Volume (a.u.^3)    200425.5371
 PW_GRID| Grid span                                                    FULLSPACE
 PW_GRID|   Distribution                         Average         Max         Min
 PW_GRID|   G-Vectors                           497664.0      497856      497472
 PW_GRID|   G-Rays                                2592.0        2593        2591
 PW_GRID|   Real Space Points                   497664.0      497664      497664

 PW_GRID| Information for grid number                                          4
 PW_GRID| Number of the reference grid                                         1
 PW_GRID| Grid distributed over                                    16 processors
 PW_GRID| Real space group dimensions                                    16    1
 PW_GRID| the grid is blocked:                                                NO
 PW_GRID| Cutoff [a.u.]                                                     18.5
 PW_GRID| spherical cutoff:                                                   NO
 PW_GRID|   Bounds   1            -60      59                Points:         120
 PW_GRID|   Bounds   2            -60      59                Points:         120
 PW_GRID|   Bounds   3            -62      62                Points:         125
 PW_GRID| Volume element (a.u.^3)  0.1113         Volume (a.u.^3)    200425.5371
 PW_GRID| Grid span                                                    FULLSPACE
 PW_GRID|   Distribution                         Average         Max         Min
 PW_GRID|   G-Vectors                           112500.0      112920      112080
 PW_GRID|   G-Rays                                 937.5         941         934
 PW_GRID|   Real Space Points                   112500.0      120000      105000

 POISSON| Solver                                                        ANALYTIC
 POISSON| Periodicity                                                       NONE

 RS_GRID| Information for grid number                                          1
 RS_GRID|   Bounds   1           -288     287                Points:         576
 RS_GRID|   Bounds   2           -288     287                Points:         576
 RS_GRID|   Bounds   3           -320     319                Points:         640
 RS_GRID| Real space distribution over                                  4 groups
 RS_GRID| Real space distribution along direction                              2
 RS_GRID| Border size                                                         32
 RS_GRID| Real space distribution over                                  4 groups
 RS_GRID| Real space distribution along direction                              3
 RS_GRID| Border size                                                         32
 RS_GRID|   Distribution                         Average         Max         Min
 RS_GRID|   Planes                                 208.0         208         208
 RS_GRID|   Distribution                         Average         Max         Min
 RS_GRID|   Planes                                 224.0         224         224

 RS_GRID| Information for grid number                                          2
 RS_GRID|   Bounds   1           -180     179                Points:         360
 RS_GRID|   Bounds   2           -180     179                Points:         360
 RS_GRID|   Bounds   3           -187     187                Points:         375
 RS_GRID| Real space distribution over                                  4 groups
 RS_GRID| Real space distribution along direction                              2
 RS_GRID| Border size                                                         28
 RS_GRID| Real space distribution over                                  4 groups
 RS_GRID| Real space distribution along direction                              3
 RS_GRID| Border size                                                         28
 RS_GRID|   Distribution                         Average         Max         Min
 RS_GRID|   Planes                                 146.0         146         146
 RS_GRID|   Distribution                         Average         Max         Min
 RS_GRID|   Planes                                 149.8         150         149

 RS_GRID| Information for grid number                                          3
 RS_GRID|   Bounds   1            -96      95                Points:         192
 RS_GRID|   Bounds   2            -96      95                Points:         192
 RS_GRID|   Bounds   3           -108     107                Points:         216
 RS_GRID| Real space fully replicated
 RS_GRID| Group size                                                           1

 RS_GRID| Information for grid number                                          4
 RS_GRID|   Bounds   1            -60      59                Points:         120
 RS_GRID|   Bounds   2            -60      59                Points:         120
 RS_GRID|   Bounds   3            -62      62                Points:         125
 RS_GRID| Real space fully replicated
 RS_GRID| Group size                                                           1

 Extrapolation method: initial_guess

 Atomic guess: The first density matrix is obtained in terms of atomic orbitals
               and electronic configurations assigned to each atomic kind

 Guess for atomic kind: Cl

 Electronic structure
    Total number of core electrons                                         10.00
    Total number of valence electrons                                       7.00
    Total number of electrons                                              17.00
    Multiplicity                                                   not specified
    S   [  2.00  2.00] 2.00
    P   [  6.00] 5.00


 *******************************************************************************
                  Iteration          Convergence                     Energy [au]
 *******************************************************************************
                          1        0.168525E-01                 -14.779020970431
                          2        0.182680E-01                 -14.779082242678
                          3        0.150516E-03                 -14.779143853879
                          4        0.370067E-05                 -14.779143857326
                          5        0.317509E-08                 -14.779143857329

 Energy components [Hartree]           Total Energy ::          -14.779143857329
                                        Band Energy ::           -2.965247378479
                                     Kinetic Energy ::            5.572175315872
                                   Potential Energy ::          -20.351319173201
                                      Virial (-V/T) ::            3.652311354101
                                        Core Energy ::          -24.692790003969
                                          XC Energy ::           -2.744840862011
                                     Coulomb Energy ::           12.658487008651
                       Total Pseudopotential Energy ::          -30.323862198887
                       Local Pseudopotential Energy ::          -33.454909953544
                    Nonlocal Pseudopotential Energy ::            3.131047754657
                                        Confinement ::            0.588968790466

 Orbital energies  State     L     Occupation   Energy[a.u.]          Energy[eV]

                       1     0          2.000      -0.737137          -20.058527

                       1     1          5.000      -0.298195           -8.114286


 Total Electron Density at R=0:                                         0.000217
 Re-scaling the density matrix to get the right number of electrons
                  # Electrons              Trace(P)               Scaling factor
                           14                14.000                        1.000

 Number of electrons:                                                         14
 Number of occupied orbitals:                                                  7
 Number of molecular orbitals:                                                 7

 Number of orbital functions:                                                 34
 Number of independent orbital functions:                                     34


 SCF WAVEFUNCTION OPTIMIZATION

  Step     Update method      Time    Convergence         Total energy    Change
  ------------------------------------------------------------------------------
     1 P_Mix/Diag. 0.40E+00    8.8     0.85477374       -30.0218260283 -3.00E+01
     2 P_Mix/Diag. 0.40E+00   12.8     0.51522210       -29.9947994315  2.70E-02
     3 P_Mix/Diag. 0.40E+00   12.7     0.30938967       -29.9789055325  1.59E-02
     4 P_Mix/Diag. 0.40E+00   12.4     0.18594074       -29.9694871800  9.42E-03
     5 P_Mix/Diag. 0.40E+00   12.3     0.11178689       -29.9638628931  5.62E-03
     6 P_Mix/Diag. 0.40E+00   12.5     0.06722106       -29.9604938268  3.37E-03
     7 DIIS/Diag.  0.12E-02   12.5     0.04055606       -29.9584734667  2.02E-03
     8 DIIS/Diag.  0.11E-03   12.3     0.00006715       -29.9554448817  3.03E-03
     9 DIIS/Diag.  0.50E-04   12.3     0.00003330       -29.9554449002 -1.85E-08
    10 DIIS/Diag.  0.57E-04   12.3     0.00003199       -29.9554448933  6.86E-09
    11 DIIS/Diag.  0.22E-04   12.3     0.00000843       -29.9554448955 -2.18E-09

  *** SCF run converged in    11 steps ***


  Electronic density on regular grids:        -14.0000000000       -0.0000000000
  Core density on regular grids:               13.9999999988       -0.0000000012
  Total charge density on r-space grids:       -0.0000000012
  Total charge density g-space grids:          -0.0000000012

  Overlap energy of the core charge distribution:               0.00000000038539
  Self energy of the core charge distribution:                -68.36030725772903
  Core Hamiltonian energy:                                     15.49928082678400
  Hartree energy:                                              28.69776487995522
  Exchange-correlation energy:                                 -5.79218334490083

  Total energy:                                               -29.95544489550526

 MO| EIGENVALUES AND OCCUPATION NUMBERS
 MO|
 MO|  Index      Eigenvalue [a.u.]        Eigenvalue [eV]             Occupation
 MO|      1              -0.908646             -24.725508               2.000000
 MO|      2              -0.755307             -20.552937               2.000000
 MO|      3              -0.457300             -12.443764               2.000000
 MO|      4              -0.382312             -10.403231               2.000000
 MO|      5              -0.382312             -10.403231               2.000000
 MO|      6              -0.287670              -7.827907               2.000000
 MO|      7              -0.287670              -7.827907               2.000000
 MO| Sum:                                                              14.000000
 MO| E(Fermi):           -0.287670 a.u.         -7.827907 eV


 !-----------------------------------------------------------------------------!
                     Mulliken Population Analysis

 #  Atom  Element  Kind  Atomic population                           Net charge
       1     Cl       1          7.000000                             -0.000000
       2     Cl       1          7.000000                              0.000000
 # Total charge                             14.000000                 -0.000000

 !-----------------------------------------------------------------------------!

 !-----------------------------------------------------------------------------!
                           Hirshfeld Charges

  #Atom  Element  Kind  Ref Charge     Population                    Net charge
      1       Cl     1       7.000          7.000                         0.000
      2       Cl     1       7.000          7.000                         0.000

  Total Charge                                                            0.000
 !-----------------------------------------------------------------------------!

 ENERGY| Total FORCE_EVAL ( QS ) energy [hartree]            -29.955444895505259

 -------------------------------------------------------------------------------
 -                                                                             -
 -                                DBCSR STATISTICS                             -
 -                                                                             -
 -------------------------------------------------------------------------------
 COUNTER                                    TOTAL       BLAS       SMM       ACC
 flops    17 x    17 x     7               133518     100.0%      0.0%      0.0%     
 flops inhomo. stacks                           0       0.0%      0.0%      0.0%
 flops total                       133.518000E+03     100.0%      0.0%      0.0%
 flops max/rank                     44.506000E+03     100.0%      0.0%      0.0%
 matmuls inhomo. stacks                         0       0.0%      0.0%      0.0%
 matmuls total                                 33     100.0%      0.0%      0.0%
 number of processed stacks                    33     100.0%      0.0%      0.0%
 average stack size                                     1.0       0.0       0.0
 marketing flops                   178.024000E+03
 -------------------------------------------------------------------------------
 # multiplications                             11
 max memory usage/rank              10.041897E+09
 # max total images/rank                        1
 # max 3D layers                                1
 # MPI messages exchanged                    1056
 MPI messages size (bytes):
  total size                       125.664000E+03
  min size                           0.000000E+00
  max size                         952.000000E+00
  average size                     119.000000E+00
 MPI breakdown and total messages size (bytes):
             size <=      128                 924                        0
       128 < size <=     8192                 132                   125664
      8192 < size <=    32768                   0                        0
     32768 < size <=   131072                   0                        0
    131072 < size <=  4194304                   0                        0
   4194304 < size <= 16777216                   0                        0
  16777216 < size                               0                        0
 -------------------------------------------------------------------------------
 -                                                                             -
 -                      DBCSR MESSAGE PASSING PERFORMANCE                      -
 -                                                                             -
 -------------------------------------------------------------------------------
 ROUTINE             CALLS      AVE VOLUME [Bytes]
 MP_Bcast                2                     12.
 MP_Allreduce           76                     12.
 MP_Alltoall           363                   1476.
 MP_ISend              176                    172.
 MP_IRecv              176                     52.
 -------------------------------------------------------------------------------

 -------------------------------------------------------------------------------
 -                                                                             -
 -                                GRID STATISTICS                              -
 -                                                                             -
 -------------------------------------------------------------------------------
 LP    KERNEL             BACKEND                              COUNT     PERCENT
 4     collocate ortho    CPU                                    192      51.34%
 4     integrate ortho    CPU                                    176      47.06%
 0     collocate general  CPU                                      4       1.07%
 0     integrate general  CPU                                      2       0.53%
 -------------------------------------------------------------------------------

 -------------------------------------------------------------------------------
 -                                                                             -
 -                          OFFLOAD MEMPOOL STATISTICS                         -
 -                                                                             -
 -------------------------------------------------------------------------------
 Memory consumption                Number of allocations  Used [MiB]  Size [MiB]
 Host                                                  6         339    21536417
 -------------------------------------------------------------------------------

 MEMORY| Estimated peak process memory [MiB]                                7831

 -------------------------------------------------------------------------------
 ----                             MULTIGRID INFO                            ----
 -------------------------------------------------------------------------------
 count for grid        1:              0          cutoff [a.u.]          500.00
 count for grid        2:          31838          cutoff [a.u.]          166.67
 count for grid        3:           9865          cutoff [a.u.]           55.56
 count for grid        4:          10313          cutoff [a.u.]           18.52
 total gridlevel count  :          52016

 -------------------------------------------------------------------------------
 -                                                                             -
 -                         MESSAGE PASSING PERFORMANCE                         -
 -                                                                             -
 -------------------------------------------------------------------------------

 ROUTINE             CALLS      AVE VOLUME [Bytes]
 MP_Group                4
 MP_Bcast               54                 190081.
 MP_Allreduce          245                  27896.
 MP_Sync                15
 MP_Alltoall           153              296363124.
 MP_SendRecv           360                2470656.
 MP_ISendRecv          330                2470656.
 MP_Wait              1457
 MP_comm_split          11
 MP_ISend              980                7181610.
 MP_IRecv              980                7182095.
 -------------------------------------------------------------------------------


 -------------------------------------------------------------------------------
 -                                                                             -
 -                           R E F E R E N C E S                               -
 -                                                                             -
 -------------------------------------------------------------------------------
 
 CP2K version 2026.2, the CP2K developers group (2026).
 CP2K is freely available from https://www.cp2k.org/ .
 
 M. Iannuzzi, J. Wilhelm, F. Stein, A. Bussy, H. Elgabarty, D. Golze, A. Hehn, 
 M. Graml, S. Marek, B. Sertcan Gökmen, C. Schran, H. Forbert, R. Z. 
 Khaliullin, A. Kozhevnikov, M. Taillefumier, R. Meli, V. V. Rybkin, M. Brehm, 
 R. Schade, O. Schütt, J. V. Pototschnig, H. Mirhosseini, A. Knüpfer, D. Marx, 
 M. Krack, J. Hutter, T. D. Kühne.
 J. Phys. Chem. B 130, 1237-1310 (2026).
 The CP2K Program Package Made Simple.
 https://doi.org/10.1021/acs.jpcb.5c05851

 T. D. Kühne, M. Iannuzzi, M. Del Ben, V. V. Rybkin, P. Seewald, F. Stein, T. 
 Laino, R. Z. Khaliullin, O. Schütt, F. Schiffmann, D. Golze, J. Wilhelm, S. 
 Chulkov, M. H. Bani-Hashemian, V. Weber, U. Borstnik, M. Taillefumier, A. S. 
 Jakobovits, A. Lazzaro, H. Pabst, T. Müller, R. Schade, M. Guidon, S. 
 Andermatt, N. Holmberg, G. K. Schenter, A. Hehn, A. Bussy, F. Belleflamme, G. 
 Tabacchi, A. Glöß, M. Lass, I. Bethune, C. J. Mundy, C. Plessl, M. Watkins, 
 J. VandeVondele, M. Krack, J. Hutter.
 J. Chem. Phys. 152, 194103 (2020).
 CP2K: An electronic structure and molecular dynamics software package - 
 Quickstep: Efficient and accurate electronic structure calculations.
 https://doi.org/10.1063/5.0007045

 O. Schuett, P. Messmer, J. Hutter, J. VandeVondele.
 Electronic Structure Calculations on Graphics Processing Units, 173-190 (2016).
 GPU-Accelerated Sparse Matrix-Matrix Multiplication for Linear Scaling Density 
 Functional Theory.
 https://doi.org/10.1002/9781118670712.ch8

 U. Borstnik, J. VandeVondele, V. Weber, J. Hutter.
 Parallel Comput. 40, 47-58 (2014).
 Sparse matrix multiplication: The distributed block-compressed sparse row 
 library.
 https://doi.org/10.1016/j.parco.2014.03.012

 J. VandeVondele, J. Hutter.
 J. Chem. Phys. 127, 114105 (2007).
 Gaussian basis sets for accurate calculations on molecular systems in gas and 
 condensed phases.
 https://doi.org/10.1063/1.2770708

 J. VandeVondele, M. Krack, F. Mohamed, M. Parrinello, T. Chassaing, J. Hutter.
 Comput. Phys. Commun. 167, 103-128 (2005).
 QUICKSTEP: Fast and accurate density functional calculations using a mixed 
 Gaussian and plane waves approach.
 https://doi.org/10.1016/j.cpc.2004.12.014

 M. Krack.
 Theor. Chem. Acc. 114, 145-152 (2005).
 Pseudopotentials for H to Kr optimized for gradient-corrected 
 exchange-correlation functionals.
 https://doi.org/10.1007/s00214-005-0655-y

 M. Frigo, S. G. Johnson.
 Proc. IEEE 93, 216-231 (2005).
 The design and implementation of FFTW3.
 https://doi.org/10.1109/JPROC.2004.840301

 C. Hartwigsen, S. Goedecker, J. Hutter.
 Phys. Rev. B 58, 3641-3662 (1998).
 Relativistic separable dual-space Gaussian pseudopotentials from H to Rn.
 https://doi.org/10.1103/PhysRevB.58.3641

 G. Lippert, J. Hutter, M. Parrinello.
 Mol. Phys. 92, 477-487 (1997).
 A hybrid Gaussian and plane wave density functional scheme.
 https://doi.org/10.1080/002689797170220

 S. Goedecker, M. Teter, J. Hutter.
 Phys. Rev. B 54, 1703-1710 (1996).
 Separable dual-space Gaussian pseudopotentials.
 https://doi.org/10.1103/PhysRevB.54.1703


 -------------------------------------------------------------------------------
 -                                                                             -
 -                                T I M I N G                                  -
 -                                                                             -
 -------------------------------------------------------------------------------
 SUBROUTINE                       CALLS  ASD         SELF TIME        TOTAL TIME
                                MAXIMUM       AVERAGE  MAXIMUM  AVERAGE  MAXIMUM
 CP2K                                 1  1.0    0.046    0.052  149.248  149.249
 qs_energies                          1  2.0    0.000    0.000  145.341  145.342
 scf_env_do_scf                       1  3.0    0.000    0.000  137.549  137.549
 scf_env_do_scf_inner_loop           11  4.0    0.000    0.001  137.549  137.549
 fft_wrap_pw1pw2                    116  9.1    0.005    0.006   87.486   90.469
 qs_ks_update_qs_env                 11  5.0    0.000    0.000   87.259   87.286
 rebuild_ks_matrix                   11  6.0    0.000    0.000   87.258   87.285
 qs_ks_build_kohn_sham_matrix        11  7.0   24.274   24.282   87.258   87.285
 fft_wrap_pw1pw2_500                 47  9.7    2.222    2.536   78.072   80.012
 fft3d_ps                           116 11.1   40.049   41.743   63.330   75.557
 qs_rho_update_rho_low               12  5.0    0.000    0.000   54.929   54.929
 calculate_rho_elec                  12  6.0    0.684    0.692   54.929   54.929
 density_rs2pw                       12  7.0    0.001    0.002   52.322   53.395
 mp_alltoall_z22v                   116 13.1    9.749   36.934    9.749   36.934
 sum_up_and_integrate                11  8.0    0.000    0.000   27.715   27.741
 integrate_v_rspace                  11  9.0    0.000    0.000   27.715   27.741
 potential_pw2rs                     11 10.0    0.034    0.041   27.709   27.735
 yz_to_x                             60 11.5    7.683    8.789   12.777   22.548
 x_to_yz                             56 12.8    5.842    6.280   10.496   20.151
 pw_gather_p                         60 10.5   13.390   15.068   13.390   15.068
 pw_poisson_solve                    11  8.0    0.001    0.001   12.721   13.695
 fft_wrap_pw1pw2_170                 23 10.4    0.100    0.137    7.905   12.025
 pw_poisson_set                      12  8.8    0.001    0.002    7.717    8.691
 transfer_rs2pw                      50  7.9    0.002    0.003    7.021    8.215
 mp_sum_d                           505  2.4    1.329    7.957    1.329    7.957
 mp_waitany                         980 11.3    4.419    7.824    4.419    7.824
 pw_scatter_p                        56 11.8    5.622    7.282    5.622    7.282
 pw_copy                            110 10.0    5.861    6.560    5.861    6.560
 transfer_pw2rs                      45 10.9    0.001    0.002    6.468    6.499
 transfer_rs2pw_500                  14  8.8    2.670    2.889    5.097    6.133
 pw_derive                           33 10.0    4.909    5.579    4.909    5.579
 init_scf_run                         1  3.0    0.000    0.000    4.722    4.722
 scf_env_initial_rho_setup            1  4.0    0.000    0.000    4.721    4.721
 transfer_pw2rs_500                  12 11.7    2.258    2.653    4.321    4.599
 pw_integral_ab_c1d_c1d_gs           11  9.0    1.769    1.931    2.203    4.479
 qs_init_subsys                       1  2.0    0.001    0.001    3.814    3.814
 qs_env_setup                         1  3.0    0.000    0.000    3.813    3.813
 qs_env_rebuild_pw_env                2  3.5    0.000    0.000    3.812    3.813
 pw_env_rebuild                       1  5.0    0.000    0.000    3.812    3.813
 pw_grid_setup                        4  6.0    0.000    0.000    3.810    3.810
 pw_grid_setup_internal               4  7.0    0.037    0.042    3.810    3.810
 pw_grid_sort                         4  8.0    1.947    2.062    2.911    3.279
 -------------------------------------------------------------------------------

 The number of warnings for this run is : 0
 
 -------------------------------------------------------------------------------
  **** **** ******  **  PROGRAM ENDED AT                 2026-08-13 11:48:33.244
 ***** ** ***  *** **   PROGRAM RAN ON            eb3791e2ef3243b6944400b65b9622
 **    ****   ******    PROGRAM RAN BY                                 <unknown>
 ***** **    ** ** **   PROGRAM PROCESS ID                                   538
  **** **  *******  **  PROGRAM STOPPED IN                    /tmp/cp2k_p96unvx_
