&GLOBAL
  PRINT_LEVEL MEDIUM
  PROJECT_NAME 1f098a133a8ededa6867d6c0918c1867b97ecdf2
  RUN_TYPE ENERGY
&END GLOBAL
&FORCE_EVAL
  METHOD Quickstep
  &DFT
    BASIS_SET_FILE_NAME BASIS_MOLOPT_UZH
    POTENTIAL_FILE_NAME POTENTIAL_UZH
    CHARGE 0
    MULTIPLICITY 1
    UKS FALSE
    &MGRID
      CUTOFF 1000
      REL_CUTOFF 60
      NGRIDS 4
    &END MGRID
    &POISSON
      PERIODIC NONE
      POISSON_SOLVER ANALYTIC
    &END POISSON
    &QS
      EPS_DEFAULT 1e-10
    &END QS
    &SCF
      EPS_SCF 1e-05
      MAX_SCF 100
      SCF_GUESS ATOMIC
      &DIAGONALIZATION
      &END DIAGONALIZATION
      &MIXING
        METHOD DIRECT_P_MIXING
        ALPHA 0.4
        NMIXING 2
      &END MIXING
    &END SCF
    &XC
      &XC_FUNCTIONAL
        &GAUXC
          FUNCTIONAL PBE
          MODEL aug-s0-funv2-cpu.fun
          GRID FINE
          PRUNING_SCHEME ROBUST
          RADIAL_QUADRATURE MURAKNOWLES
        &END GAUXC
      &END XC_FUNCTIONAL
    &END XC
    &PRINT
      &MO
        ENERGIES T
        OCCNUMS  T
        &EACH
          QS_SCF 0
        &END
      &END
    &END
  &END DFT
  &SUBSYS
    &CELL
      ABC 35.0000 35.0000 37.0000
      ALPHA_BETA_GAMMA 90.0000 90.0000 90.0000
      PERIODIC NONE
    &END CELL
    &TOPOLOGY
      &CENTER_COORDINATES
      &END
    &END TOPOLOGY
    &COORD
      H         1.4778599991        2.0267400013       -1.4779200025
      H        -0.7590899976        0.2297599976        2.9308700004
      C        -1.7265399975       -1.3263500019       -0.8288600019
      B         1.1353400004       -0.4699000019       -1.1884899985
      H        -2.2766899986       -2.0830100018       -0.2589300023
      P         0.0323200009       -2.0239300015       -1.1765400023
      O         0.2178500019        0.3074800005        2.9467499999
      Cl        2.3356000007        2.0771000025        1.3650699989
      Al        0.7075500000        0.7418800011        1.0452799977
      P         1.6316799977        0.9129400005       -2.3424899991
      B        -1.5999499977        0.0234900018       -0.1462400007
      H         0.5900799989       -0.5165699976        3.3098100014
      F         0.3277699989        1.1531000025       -3.2876699995
      P        -1.4154999997        1.5884599993        0.5558400002
      H        -2.1864599977       -1.2394699996       -1.8222499989
      P         1.5081900026       -1.4017100014        0.3757700020
    &END COORD
    &KIND Al
      BASIS_SET TZVP-MOLOPT-SCAN-GTH-q3
      POTENTIAL GTH-SCAN-q3
    &END KIND
    &KIND B
      BASIS_SET TZVP-MOLOPT-SCAN-GTH-q3
      POTENTIAL GTH-SCAN-q3
    &END KIND
    &KIND C
      BASIS_SET TZVP-MOLOPT-SCAN-GTH-q4
      POTENTIAL GTH-SCAN-q4
    &END KIND
    &KIND Cl
      BASIS_SET TZVP-MOLOPT-SCAN-GTH-q7
      POTENTIAL GTH-SCAN-q7
    &END KIND
    &KIND F
      BASIS_SET TZVP-MOLOPT-SCAN-GTH-q7
      POTENTIAL GTH-SCAN-q7
    &END KIND
    &KIND H
      BASIS_SET TZVP-MOLOPT-SCAN-GTH-q1
      POTENTIAL GTH-SCAN-q1
    &END KIND
    &KIND O
      BASIS_SET TZVP-MOLOPT-SCAN-GTH-q6
      POTENTIAL GTH-SCAN-q6
    &END KIND
    &KIND P
      BASIS_SET TZVP-MOLOPT-SCAN-GTH-q5
      POTENTIAL GTH-SCAN-q5
    &END KIND
  &END SUBSYS
&END FORCE_EVAL

================================================================================
=== END OF CP2K INPUT / START OF CP2K OUTPUT ===
================================================================================

 DBCSR| CPU Multiplication driver                                           BLAS (U)
 DBCSR| Multrec recursion limit                                              512 (U)
 DBCSR| Multiplication stack size                                           1000 (D)
 DBCSR| Maximum elements for images                                    UNLIMITED (U)
 DBCSR| Multiplicative factor virtual images                                   1 (U)
 DBCSR| Use multiplication densification                                       T (D)
 DBCSR| Multiplication size stacks                                             3 (U)
 DBCSR| Use memory pool for CPU allocation                                     F (U)
 DBCSR| Number of 3D layers                                               SINGLE (U)
 DBCSR| Use MPI memory allocation                                              F (U)
 DBCSR| Use RMA algorithm                                                      F (U)
 DBCSR| Use Communication thread                                               T (U)
 DBCSR| Communication thread load                                             87 (D)
 DBCSR| MPI: My process id                                                     0
 DBCSR| MPI: Number of processes                                              16
 DBCSR| OMP: Current number of threads                                         1
 DBCSR| OMP: Max number of threads                                             1
 DBCSR| Split modifier for TAS multiplication algorithm                  1.0E+00 (U)


  **** **** ******  **  PROGRAM STARTED AT               2026-08-13 12:30:11.373
 ***** ** ***  *** **   PROGRAM STARTED ON        eb3791e2ef3243b6944400b65b9622
 **    ****   ******    PROGRAM STARTED BY                             <unknown>
 ***** **    ** ** **   PROGRAM PROCESS ID                                  1084
  **** **  *******  **  PROGRAM STARTED IN                    /tmp/cp2k_o2thjts8

 CP2K| version string:                                       CP2K version 2026.2
 CP2K| source code revision number:                                  git:c92cc08
 CP2K| cp2kflags: omp libint fftw3 libxc gauxc gauxc_mpi gauxc_onedft gauxc_host
 CP2K|             parallel scalapack mpi_f08 spglib sirius libtorch hdf5
 CP2K| is freely available from                            https://www.cp2k.org/
 CP2K| Program compiled at                                   2026-08-13 02:05:42
 CP2K| Program compiled on                                                      
 CP2K| Program compiled for                                               x86_64
 CP2K| Data directory path                             /opt/cp2k/share/cp2k/data
 CP2K| Input file name                                            cp2k_input.inp

 GLOBAL| Force Environment number                                              1
 GLOBAL| Basis set file name                                    BASIS_MOLOPT_UZH
 GLOBAL| Potential file name                                       POTENTIAL_UZH
 GLOBAL| MM Potential file name                                     MM_POTENTIAL
 GLOBAL| Coordinate file name                                      __STD_INPUT__
 GLOBAL| Method name                                                        CP2K
 GLOBAL| Project name                   1f098a133a8ededa6867d6c0918c1867b97ecdf2
 GLOBAL| Run type                                                         ENERGY
 GLOBAL| FFT library                                                       FFTW3
 GLOBAL| Diagonalization library                                       ScaLAPACK
 GLOBAL| Cholesky decomposition library                                ScaLAPACK
 GLOBAL| DGEMM library                                                      BLAS
 GLOBAL| Direct generalized diagonalization requested                          F
 GLOBAL| Orthonormality check for eigenvectors                          DISABLED
 GLOBAL| Matrix multiplication library                                 ScaLAPACK
 GLOBAL| All-to-all communication in single precision                          F
 GLOBAL| FFTs using library dependent lengths                                  F
 GLOBAL| Grid backend                                                       AUTO
 GLOBAL| Global print level                                               MEDIUM
 GLOBAL| MPI I/O enabled                                                       T
 GLOBAL| Total number of message passing processes                            16
 GLOBAL| Number of distributed systems (nodes)                                 1
 GLOBAL| Number of threads for this process                                    1
 GLOBAL| This output is from process                                           0
 GLOBAL| OpenMP stack size per thread (OMP_STACKSIZE)                        16M
 GLOBAL| CPU model name                          AMD EPYC 9V74 80-Core Processor
 GLOBAL| CPUID                                                              1002

 MEMORY| system memory details [Kb]
 MEMORY|                        rank 0           min           max       average
 MEMORY| MemTotal            263924008     263924008     263924008     263924008
 MEMORY| MemFree             238677364     238677364     238677364     238677364
 MEMORY| Buffers                361480        361480        361480        361480
 MEMORY| Cached               18102528      18102528      18102528      18102528
 MEMORY| Slab                  1474624       1474624       1474624       1474624
 MEMORY| SReclaimable          1133804       1133804       1133804       1133804
 MEMORY| MemLikelyFree       258275176     258275176     258275176     258275176


 *** Fundamental physical constants (SI units) ***

 *** Literature: B. J. Mohr and B. N. Taylor,
 ***             CODATA recommended values of the fundamental physical
 ***             constants: 2006, Web Version 5.1
 ***             http://physics.nist.gov/constants

 Speed of light in vacuum [m/s]                             2.99792458000000E+08
 Magnetic constant or permeability of vacuum [N/A**2]       1.25663706143592E-06
 Electric constant or permittivity of vacuum [F/m]          8.85418781762039E-12
 Planck constant (h) [J*s]                                  6.62606896000000E-34
 Planck constant (h-bar) [J*s]                              1.05457162825177E-34
 Elementary charge [C]                                      1.60217648700000E-19
 Electron mass [kg]                                         9.10938215000000E-31
 Electron g factor [ ]                                     -2.00231930436220E+00
 Proton mass [kg]                                           1.67262163700000E-27
 Fine-structure constant                                    7.29735253760000E-03
 Rydberg constant [1/m]                                     1.09737315685270E+07
 Avogadro constant [1/mol]                                  6.02214179000000E+23
 Boltzmann constant [J/K]                                   1.38065040000000E-23
 Atomic mass unit [kg]                                      1.66053878200000E-27
 Bohr radius [m]                                            5.29177208590000E-11

 *** Conversion factors ***

 [u] -> [a.u.]                                              1.82288848426455E+03
 [Angstrom] -> [Bohr] = [a.u.]                              1.88972613288564E+00
 [a.u.] = [Bohr] -> [Angstrom]                              5.29177208590000E-01
 [a.u.] -> [s]                                              2.41888432650478E-17
 [a.u.] -> [fs]                                             2.41888432650478E-02
 [a.u.] -> [J]                                              4.35974393937059E-18
 [a.u.] -> [N]                                              8.23872205491840E-08
 [a.u.] -> [K]                                              3.15774647902944E+05
 [a.u.] -> [kJ/mol]                                         2.62549961709828E+03
 [a.u.] -> [kcal/mol]                                       6.27509468713739E+02
 [a.u.] -> [Pa]                                             2.94210107994716E+13
 [a.u.] -> [bar]                                            2.94210107994716E+08
 [a.u.] -> [atm]                                            2.90362800883016E+08
 [a.u.] -> [eV]                                             2.72113838565563E+01
 [a.u.] -> [Hz]                                             6.57968392072181E+15
 [a.u.] -> [1/cm] (wave numbers)                            2.19474631370540E+05
 [a.u./Bohr**2] -> [1/cm]                                   5.14048714338585E+03
 

 CELL| Volume [angstrom^3]:                                         45325.000000
 CELL| Vector a [angstrom]:      35.000     0.000     0.000   |a| =    35.000000
 CELL| Vector b [angstrom]:       0.000    35.000     0.000   |b| =    35.000000
 CELL| Vector c [angstrom]:       0.000     0.000    37.000   |c| =    37.000000
 CELL| Angle (b,c), alpha [degree]:                                    90.000000
 CELL| Angle (a,c), beta  [degree]:                                    90.000000
 CELL| Angle (a,b), gamma [degree]:                                    90.000000
 CELL| Numerically orthorhombic:                                             YES
 CELL| Periodicity                                                          NONE

 CELL_REF| Volume [angstrom^3]:                                     45325.000000
 CELL_REF| Vector a [angstrom    35.000     0.000     0.000   |a| =    35.000000
 CELL_REF| Vector b [angstrom     0.000    35.000     0.000   |b| =    35.000000
 CELL_REF| Vector c [angstrom     0.000     0.000    37.000   |c| =    37.000000
 CELL_REF| Angle (b,c), alpha [degree]:                                90.000000
 CELL_REF| Angle (a,c), beta  [degree]:                                90.000000
 CELL_REF| Angle (a,b), gamma [degree]:                                90.000000
 CELL_REF| Numerically orthorhombic:                                         YES
 CELL_REF| Periodicity                                                      NONE

 GENERATE|  Preliminary Number of Bonds generated:                             0
 GENERATE|  Achieved consistency in connectivity generation.

 *******************************************************************************
 *******************************************************************************
 **                                                                           **
 **     #####                         ##              ##                      **
 **    ##   ##            ##          ##              ##                      **
 **   ##     ##                       ##            ######                    **
 **   ##     ##  ##   ##  ##   #####  ##  ##   ####   ##    #####    #####    **
 **   ##     ##  ##   ##  ##  ##      ## ##   ##      ##   ##   ##  ##   ##   **
 **   ##  ## ##  ##   ##  ##  ##      ####     ###    ##   ######   ######    **
 **    ##  ###   ##   ##  ##  ##      ## ##      ##   ##   ##       ##        **
 **     #######   #####   ##   #####  ##  ##  ####    ##    #####   ##        **
 **           ##                                                    ##        **
 **                                                                           **
 **                                                ... make the atoms dance   **
 **                                                                           **
 **            Copyright (C) by CP2K developers group (2000-2026)             **
 **                      J. Chem. Phys. 152, 194103 (2020)                    **
 **                                                                           **
 *******************************************************************************

 DFT| Spin restricted Kohn-Sham (RKS) calculation                            RKS
 DFT| Multiplicity                                                             1
 DFT| Number of spin states                                                    1
 DFT| Charge                                                                   0
 DFT| Self-interaction correction (SIC)                                       NO
 DFT| Cutoffs: density                                              1.000000E-10
 DFT|          gradient                                             1.000000E-10
 DFT|          tau                                                  1.000000E-10
 DFT|          cutoff_smoothing_range                               0.000000E+00
 DFT| XC density smoothing                                                  NONE
 DFT| XC derivatives                                                          PW

 FUNCTIONAL| GAUXC:
 FUNCTIONAL| Functional computed by GauXC Skala model aug-s0-funv2-cpu.fun      


 QS| Method:                                                                 GPW
 QS| Density plane wave grid type                        NON-SPHERICAL FULLSPACE
 QS| Number of grid levels:                                                    4
 QS| Density cutoff [a.u.]:                                                500.0
 QS| Multi grid cutoff [a.u.]: 1) grid level                               500.0
 QS|                           2) grid level                               166.7
 QS|                           3) grid level                                55.6
 QS|                           4) grid level                                18.5
 QS| Grid level progression factor:                                          3.0
 QS| Relative density cutoff [a.u.]:                                        30.0
 QS| Interaction thresholds: eps_pgf_orb:                                1.0E-05
 QS|                         eps_filter_matrix:                          0.0E+00
 QS|                         eps_core_charge:                            1.0E-12
 QS|                         eps_rho_gspace:                             1.0E-10
 QS|                         eps_rho_rspace:                             1.0E-10
 QS|                         eps_gvg_rspace:                             1.0E-05
 QS|                         eps_ppl:                                    1.0E-02
 QS|                         eps_ppnl:                                   1.0E-07


 ATOMIC KIND INFORMATION

  1. Atomic kind: H                                     Number of atoms:       5

     Orbital Basis Set                                   TZVP-MOLOPT-SCAN-GTH-q1

       Number of orbital shell sets:                                           1
       Number of orbital shells:                                               4
       Number of primitive Cartesian functions:                                5
       Number of Cartesian basis functions:                                    6
       Number of spherical basis functions:                                    6
       Norm type:                                                              2

       Normalised Cartesian orbitals:

                        Set   Shell   Orbital            Exponent    Coefficient

                          1       1    2s                9.168765       0.095357
                                                         2.161194       0.125778
                                                         0.619868       0.162183
                                                         0.161316       0.074849
                                                         0.412255       0.090962

                          1       2    3s                9.168765      -0.435739
                                                         2.161194      -0.868971
                                                         0.619868      -0.406683
                                                         0.161316      -0.142964
                                                         0.412255       0.978336

                          1       3    4s                9.168765       0.385896
                                                         2.161194       1.113624
                                                         0.619868       0.043366
                                                         0.161316      -0.067676
                                                         0.412255       0.053421

                          1       4    3px               9.168765      -1.788640
                                                         2.161194       0.906920
                                                         0.619868       0.273605
                                                         0.161316       0.091389
                                                         0.412255       0.008094
                          1       4    3py               9.168765      -1.788640
                                                         2.161194       0.906920
                                                         0.619868       0.273605
                                                         0.161316       0.091389
                                                         0.412255       0.008094
                          1       4    3pz               9.168765      -1.788640
                                                         2.161194       0.906920
                                                         0.619868       0.273605
                                                         0.161316       0.091389
                                                         0.412255       0.008094

       Atomic covalent radius [Angstrom]:                                  0.320

       Atomic van der Waals radius [Angstrom]:                             1.090

     GTH Potential information for                                   GTH-SCAN-q1

       Description:                       Goedecker-Teter-Hutter pseudopotential
                                           Goedecker et al., PRB 54, 1703 (1996)
                                          Hartwigsen et al., PRB 58, 3641 (1998)
                                                      Krack, TCA 114, 145 (2005)

       Gaussian exponent of the core charge distribution:              12.429142
       Electronic configuration (s p d ...):                       1   0   0   0

       Parameters of the local part of the GTH pseudopotential:

                          rloc        C1          C2          C3          C4
                        0.200569   -4.177243    0.723816

  2. Atomic kind: C                                     Number of atoms:       1

     Orbital Basis Set                                   TZVP-MOLOPT-SCAN-GTH-q4

       Number of orbital shell sets:                                           1
       Number of orbital shells:                                               7
       Number of primitive Cartesian functions:                                5
       Number of Cartesian basis functions:                                   18
       Number of spherical basis functions:                                   17
       Norm type:                                                              2

       Normalised Cartesian orbitals:

                        Set   Shell   Orbital            Exponent    Coefficient

                          1       1    2s                5.623460      -0.349209
                                                         2.098559      -0.253875
                                                         0.820511       0.248209
                                                         0.317331       0.216287
                                                         0.111116       0.012850

                          1       2    3s                5.623460       0.160090
                                                         2.098559       0.144150
                                                         0.820511      -0.103023
                                                         0.317331       0.001075
                                                         0.111116       0.142208

                          1       3    4s                5.623460      -1.207693
                                                         2.098559      -1.266789
                                                         0.820511       0.734368
                                                         0.317331      -0.329587
                                                         0.111116       0.046451

                          1       4    3px               5.623460      -0.717953
                                                         2.098559      -0.559659
                                                         0.820511      -0.405261
                                                         0.317331      -0.145150
                                                         0.111116      -0.020126
                          1       4    3py               5.623460      -0.717953
                                                         2.098559      -0.559659
                                                         0.820511      -0.405261
                                                         0.317331      -0.145150
                                                         0.111116      -0.020126
                          1       4    3pz               5.623460      -0.717953
                                                         2.098559      -0.559659
                                                         0.820511      -0.405261
                                                         0.317331      -0.145150
                                                         0.111116      -0.020126

                          1       5    4px               5.623460       0.831730
                                                         2.098559       0.877901
                                                         0.820511       0.415963
                                                         0.317331       0.032156
                                                         0.111116      -0.090730
                          1       5    4py               5.623460       0.831730
                                                         2.098559       0.877901
                                                         0.820511       0.415963
                                                         0.317331       0.032156
                                                         0.111116      -0.090730
                          1       5    4pz               5.623460       0.831730
                                                         2.098559       0.877901
                                                         0.820511       0.415963
                                                         0.317331       0.032156
                                                         0.111116      -0.090730

                          1       6    5px               5.623460       1.619151
                                                         2.098559       2.412091
                                                         0.820511       0.659876
                                                         0.317331      -0.314050
                                                         0.111116       0.028213
                          1       6    5py               5.623460       1.619151
                                                         2.098559       2.412091
                                                         0.820511       0.659876
                                                         0.317331      -0.314050
                                                         0.111116       0.028213
                          1       6    5pz               5.623460       1.619151
                                                         2.098559       2.412091
                                                         0.820511       0.659876
                                                         0.317331      -0.314050
                                                         0.111116       0.028213

                          1       7    4dx2              5.623460      -2.005729
                                                         2.098559       1.064556
                                                         0.820511       0.464044
                                                         0.317331       0.120863
                                                         0.111116       0.003311
                          1       7    4dxy              5.623460      -3.474025
                                                         2.098559       1.843865
                                                         0.820511       0.803748
                                                         0.317331       0.209340
                                                         0.111116       0.005735
                          1       7    4dxz              5.623460      -3.474025
                                                         2.098559       1.843865
                                                         0.820511       0.803748
                                                         0.317331       0.209340
                                                         0.111116       0.005735
                          1       7    4dy2              5.623460      -2.005729
                                                         2.098559       1.064556
                                                         0.820511       0.464044
                                                         0.317331       0.120863
                                                         0.111116       0.003311
                          1       7    4dyz              5.623460      -3.474025
                                                         2.098559       1.843865
                                                         0.820511       0.803748
                                                         0.317331       0.209340
                                                         0.111116       0.005735
                          1       7    4dz2              5.623460      -2.005729
                                                         2.098559       1.064556
                                                         0.820511       0.464044
                                                         0.317331       0.120863
                                                         0.111116       0.003311

       Atomic covalent radius [Angstrom]:                                  0.770

       Atomic van der Waals radius [Angstrom]:                             1.700

     GTH Potential information for                                   GTH-SCAN-q4

       Description:                       Goedecker-Teter-Hutter pseudopotential
                                           Goedecker et al., PRB 54, 1703 (1996)
                                          Hartwigsen et al., PRB 58, 3641 (1998)
                                                      Krack, TCA 114, 145 (2005)

       Gaussian exponent of the core charge distribution:               4.454624
       Electronic configuration (s p d ...):                       2   2   0   0

       Parameters of the local part of the GTH pseudopotential:

                          rloc        C1          C2          C3          C4
                        0.335027   -8.822616    1.299117

       Parameters of the non-local part of the GTH pseudopotential:

                   l      r(l)      h(i,j,l)

                   0    0.303798    9.625763

  3. Atomic kind: B                                     Number of atoms:       2

     Orbital Basis Set                                   TZVP-MOLOPT-SCAN-GTH-q3

       Number of orbital shell sets:                                           1
       Number of orbital shells:                                               7
       Number of primitive Cartesian functions:                                5
       Number of Cartesian basis functions:                                   18
       Number of spherical basis functions:                                   17
       Norm type:                                                              2

       Normalised Cartesian orbitals:

                        Set   Shell   Orbital            Exponent    Coefficient

                          1       1    2s                3.659887      -0.244714
                                                         1.279727      -0.176607
                                                         0.546167       0.172142
                                                         0.223705       0.137695
                                                         0.081716       0.028822

                          1       2    3s                3.659887       0.360876
                                                         1.279727       0.163052
                                                         0.546167      -0.173138
                                                         0.223705      -0.046078
                                                         0.081716       0.134791

                          1       3    4s                3.659887      -1.179765
                                                         1.279727      -0.344696
                                                         0.546167       0.126891
                                                         0.223705      -0.122153
                                                         0.081716       0.017480

                          1       4    3px               3.659887      -0.435152
                                                         1.279727      -0.280457
                                                         0.546167      -0.224938
                                                         0.223705      -0.088445
                                                         0.081716      -0.017232
                          1       4    3py               3.659887      -0.435152
                                                         1.279727      -0.280457
                                                         0.546167      -0.224938
                                                         0.223705      -0.088445
                                                         0.081716      -0.017232
                          1       4    3pz               3.659887      -0.435152
                                                         1.279727      -0.280457
                                                         0.546167      -0.224938
                                                         0.223705      -0.088445
                                                         0.081716      -0.017232

                          1       5    4px               3.659887       0.679943
                                                         1.279727       0.601476
                                                         0.546167       0.270188
                                                         0.223705       0.041334
                                                         0.081716      -0.059015
                          1       5    4py               3.659887       0.679943
                                                         1.279727       0.601476
                                                         0.546167       0.270188
                                                         0.223705       0.041334
                                                         0.081716      -0.059015
                          1       5    4pz               3.659887       0.679943
                                                         1.279727       0.601476
                                                         0.546167       0.270188
                                                         0.223705       0.041334
                                                         0.081716      -0.059015

                          1       6    5px               3.659887       1.058691
                                                         1.279727       1.620514
                                                         0.546167       0.222847
                                                         0.223705      -0.172432
                                                         0.081716       0.017020
                          1       6    5py               3.659887       1.058691
                                                         1.279727       1.620514
                                                         0.546167       0.222847
                                                         0.223705      -0.172432
                                                         0.081716       0.017020
                          1       6    5pz               3.659887       1.058691
                                                         1.279727       1.620514
                                                         0.546167       0.222847
                                                         0.223705      -0.172432
                                                         0.081716       0.017020

                          1       7    4dx2              3.659887      -1.323917
                                                         1.279727       0.762645
                                                         0.546167       0.174489
                                                         0.223705       0.065210
                                                         0.081716       0.001874
                          1       7    4dxy              3.659887      -2.293092
                                                         1.279727       1.320939
                                                         0.546167       0.302224
                                                         0.223705       0.112947
                                                         0.081716       0.003247
                          1       7    4dxz              3.659887      -2.293092
                                                         1.279727       1.320939
                                                         0.546167       0.302224
                                                         0.223705       0.112947
                                                         0.081716       0.003247
                          1       7    4dy2              3.659887      -1.323917
                                                         1.279727       0.762645
                                                         0.546167       0.174489
                                                         0.223705       0.065210
                                                         0.081716       0.001874
                          1       7    4dyz              3.659887      -2.293092
                                                         1.279727       1.320939
                                                         0.546167       0.302224
                                                         0.223705       0.112947
                                                         0.081716       0.003247
                          1       7    4dz2              3.659887      -1.323917
                                                         1.279727       0.762645
                                                         0.546167       0.174489
                                                         0.223705       0.065210
                                                         0.081716       0.001874

       Atomic covalent radius [Angstrom]:                                  0.820

       Atomic van der Waals radius [Angstrom]:                             1.920

     GTH Potential information for                                   GTH-SCAN-q3

       Description:                       Goedecker-Teter-Hutter pseudopotential
                                           Goedecker et al., PRB 54, 1703 (1996)
                                          Hartwigsen et al., PRB 58, 3641 (1998)
                                                      Krack, TCA 114, 145 (2005)

       Gaussian exponent of the core charge distribution:               2.962771
       Electronic configuration (s p d ...):                       2   1   0   0

       Parameters of the local part of the GTH pseudopotential:

                          rloc        C1          C2          C3          C4
                        0.410805   -5.916795    0.866086

       Parameters of the non-local part of the GTH pseudopotential:

                   l      r(l)      h(i,j,l)

                   0    0.373210    6.278067

  4. Atomic kind: P                                     Number of atoms:       4

     Orbital Basis Set                                   TZVP-MOLOPT-SCAN-GTH-q5

       Number of orbital shell sets:                                           1
       Number of orbital shells:                                               7
       Number of primitive Cartesian functions:                                4
       Number of Cartesian basis functions:                                   18
       Number of spherical basis functions:                                   17
       Norm type:                                                              2

       Normalised Cartesian orbitals:

                        Set   Shell   Orbital            Exponent    Coefficient

                          1       1    2s                1.517429       0.321659
                                                         0.578536      -0.113829
                                                         0.222216      -0.177615
                                                         0.079604      -0.023186

                          1       2    3s                1.517429       0.359505
                                                         0.578536      -0.203684
                                                         0.222216      -0.005187
                                                         0.079604       0.119482

                          1       3    4s                1.517429      -1.102423
                                                         0.578536       0.245456
                                                         0.222216      -0.185548
                                                         0.079604       0.059485

                          1       4    3px               1.517429       0.178308
                                                         0.578536      -0.255138
                                                         0.222216      -0.121052
                                                         0.079604      -0.015353
                          1       4    3py               1.517429       0.178308
                                                         0.578536      -0.255138
                                                         0.222216      -0.121052
                                                         0.079604      -0.015353
                          1       4    3pz               1.517429       0.178308
                                                         0.578536      -0.255138
                                                         0.222216      -0.121052
                                                         0.079604      -0.015353

                          1       5    4px               1.517429       0.472381
                                                         0.578536      -0.590485
                                                         0.222216       0.019612
                                                         0.079604       0.060494
                          1       5    4py               1.517429       0.472381
                                                         0.578536      -0.590485
                                                         0.222216       0.019612
                                                         0.079604       0.060494
                          1       5    4pz               1.517429       0.472381
                                                         0.578536      -0.590485
                                                         0.222216       0.019612
                                                         0.079604       0.060494

                          1       6    5px               1.517429      -2.734769
                                                         0.578536       0.561380
                                                         0.222216      -0.236754
                                                         0.079604       0.057839
                          1       6    5py               1.517429      -2.734769
                                                         0.578536       0.561380
                                                         0.222216      -0.236754
                                                         0.079604       0.057839
                          1       6    5pz               1.517429      -2.734769
                                                         0.578536       0.561380
                                                         0.222216      -0.236754
                                                         0.079604       0.057839

                          1       7    4dx2              1.517429       0.610047
                                                         0.578536       0.346080
                                                         0.222216       0.050920
                                                         0.079604      -0.000173
                          1       7    4dxy              1.517429       1.056633
                                                         0.578536       0.599428
                                                         0.222216       0.088195
                                                         0.079604      -0.000300
                          1       7    4dxz              1.517429       1.056633
                                                         0.578536       0.599428
                                                         0.222216       0.088195
                                                         0.079604      -0.000300
                          1       7    4dy2              1.517429       0.610047
                                                         0.578536       0.346080
                                                         0.222216       0.050920
                                                         0.079604      -0.000173
                          1       7    4dyz              1.517429       1.056633
                                                         0.578536       0.599428
                                                         0.222216       0.088195
                                                         0.079604      -0.000300
                          1       7    4dz2              1.517429       0.610047
                                                         0.578536       0.346080
                                                         0.222216       0.050920
                                                         0.079604      -0.000173

       Atomic covalent radius [Angstrom]:                                  1.060

       Atomic van der Waals radius [Angstrom]:                             1.800

     GTH Potential information for                                   GTH-SCAN-q5

       Description:                       Goedecker-Teter-Hutter pseudopotential
                                           Goedecker et al., PRB 54, 1703 (1996)
                                          Hartwigsen et al., PRB 58, 3641 (1998)
                                                      Krack, TCA 114, 145 (2005)

       Gaussian exponent of the core charge distribution:               2.680198
       Electronic configuration (s p d ...):                       2   3   0   0

       Parameters of the local part of the GTH pseudopotential:

                          rloc        C1          C2          C3          C4
                        0.431918   -5.574965

       Parameters of the non-local part of the GTH pseudopotential:

                   l      r(l)      h(i,j,l)

                   0    0.395830   10.974303   -3.470359
                                   -3.470359    4.520844
                   1    0.446778    3.055634

  5. Atomic kind: O                                     Number of atoms:       1

     Orbital Basis Set                                   TZVP-MOLOPT-SCAN-GTH-q6

       Number of orbital shell sets:                                           1
       Number of orbital shells:                                               7
       Number of primitive Cartesian functions:                                5
       Number of Cartesian basis functions:                                   18
       Number of spherical basis functions:                                   17
       Norm type:                                                              2

       Normalised Cartesian orbitals:

                        Set   Shell   Orbital            Exponent    Coefficient

                          1       1    2s               10.257817      -0.419073
                                                         3.644287      -0.215759
                                                         1.402225       0.311285
                                                         0.522057       0.263821
                                                         0.168189       0.045116

                          1       2    3s               10.257817       0.362459
                                                         3.644287       0.180656
                                                         1.402225      -0.203664
                                                         0.522057      -0.159611
                                                         0.168189       0.244682

                          1       3    4s               10.257817      -2.413417
                                                         3.644287      -0.850901
                                                         1.402225       0.170654
                                                         0.522057      -0.131214
                                                         0.168189       0.003984

                          1       4    3px              10.257817      -1.672017
                                                         3.644287      -1.345385
                                                         1.402225      -0.751048
                                                         0.522057      -0.276645
                                                         0.168189      -0.033014
                          1       4    3py              10.257817      -1.672017
                                                         3.644287      -1.345385
                                                         1.402225      -0.751048
                                                         0.522057      -0.276645
                                                         0.168189      -0.033014
                          1       4    3pz              10.257817      -1.672017
                                                         3.644287      -1.345385
                                                         1.402225      -0.751048
                                                         0.522057      -0.276645
                                                         0.168189      -0.033014

                          1       5    4px              10.257817       1.559903
                                                         3.644287       0.989060
                                                         1.402225       0.672543
                                                         0.522057       0.141420
                                                         0.168189      -0.167208
                          1       5    4py              10.257817       1.559903
                                                         3.644287       0.989060
                                                         1.402225       0.672543
                                                         0.522057       0.141420
                                                         0.168189      -0.167208
                          1       5    4pz              10.257817       1.559903
                                                         3.644287       0.989060
                                                         1.402225       0.672543
                                                         0.522057       0.141420
                                                         0.168189      -0.167208

                          1       6    5px              10.257817       5.420840
                                                         3.644287       0.742781
                                                         1.402225       2.786765
                                                         0.522057      -0.733751
                                                         0.168189       0.023040
                          1       6    5py              10.257817       5.420840
                                                         3.644287       0.742781
                                                         1.402225       2.786765
                                                         0.522057      -0.733751
                                                         0.168189       0.023040
                          1       6    5pz              10.257817       5.420840
                                                         3.644287       0.742781
                                                         1.402225       2.786765
                                                         0.522057      -0.733751
                                                         0.168189       0.023040

                          1       7    4dx2             10.257817      -1.249026
                                                         3.644287       1.475740
                                                         1.402225       0.993741
                                                         0.522057       0.395456
                                                         0.168189      -0.006736
                          1       7    4dxy             10.257817      -2.163376
                                                         3.644287       2.556057
                                                         1.402225       1.721210
                                                         0.522057       0.684950
                                                         0.168189      -0.011667
                          1       7    4dxz             10.257817      -2.163376
                                                         3.644287       2.556057
                                                         1.402225       1.721210
                                                         0.522057       0.684950
                                                         0.168189      -0.011667
                          1       7    4dy2             10.257817      -1.249026
                                                         3.644287       1.475740
                                                         1.402225       0.993741
                                                         0.522057       0.395456
                                                         0.168189      -0.006736
                          1       7    4dyz             10.257817      -2.163376
                                                         3.644287       2.556057
                                                         1.402225       1.721210
                                                         0.522057       0.684950
                                                         0.168189      -0.011667
                          1       7    4dz2             10.257817      -1.249026
                                                         3.644287       1.475740
                                                         1.402225       0.993741
                                                         0.522057       0.395456
                                                         0.168189      -0.006736

       Atomic covalent radius [Angstrom]:                                  0.730

       Atomic van der Waals radius [Angstrom]:                             1.520

     GTH Potential information for                                   GTH-SCAN-q6

       Description:                       Goedecker-Teter-Hutter pseudopotential
                                           Goedecker et al., PRB 54, 1703 (1996)
                                          Hartwigsen et al., PRB 58, 3641 (1998)
                                                      Krack, TCA 114, 145 (2005)

       Gaussian exponent of the core charge distribution:               8.656553
       Electronic configuration (s p d ...):                       2   4   0   0

       Parameters of the local part of the GTH pseudopotential:

                          rloc        C1          C2          C3          C4
                        0.240333  -16.794986    2.452457

       Parameters of the non-local part of the GTH pseudopotential:

                   l      r(l)      h(i,j,l)

                   0    0.221500   18.441562

  6. Atomic kind: Cl                                    Number of atoms:       1

     Orbital Basis Set                                   TZVP-MOLOPT-SCAN-GTH-q7

       Number of orbital shell sets:                                           1
       Number of orbital shells:                                               7
       Number of primitive Cartesian functions:                                4
       Number of Cartesian basis functions:                                   18
       Number of spherical basis functions:                                   17
       Norm type:                                                              2

       Normalised Cartesian orbitals:

                        Set   Shell   Orbital            Exponent    Coefficient

                          1       1    2s                1.990311       0.553567
                                                         1.465019      -0.335082
                                                         0.406554      -0.193469
                                                         0.133703      -0.084795

                          1       2    3s                1.990311       0.542077
                                                         1.465019       0.196337
                                                         0.406554      -0.540548
                                                         0.133703       0.272824

                          1       3    4s                1.990311      -0.144377
                                                         1.465019      -1.031705
                                                         0.406554       0.087725
                                                         0.133703       0.058245

                          1       4    3px               1.990311       0.952589
                                                         1.465019      -0.976975
                                                         0.406554      -0.277977
                                                         0.133703      -0.041264
                          1       4    3py               1.990311       0.952589
                                                         1.465019      -0.976975
                                                         0.406554      -0.277977
                                                         0.133703      -0.041264
                          1       4    3pz               1.990311       0.952589
                                                         1.465019      -0.976975
                                                         0.406554      -0.277977
                                                         0.133703      -0.041264

                          1       5    4px               1.990311       0.721240
                                                         1.465019      -0.521030
                                                         0.406554      -0.232610
                                                         0.133703       0.147705
                          1       5    4py               1.990311       0.721240
                                                         1.465019      -0.521030
                                                         0.406554      -0.232610
                                                         0.133703       0.147705
                          1       5    4pz               1.990311       0.721240
                                                         1.465019      -0.521030
                                                         0.406554      -0.232610
                                                         0.133703       0.147705

                          1       6    5px               1.990311      -1.056793
                                                         1.465019      -2.017277
                                                         0.406554       0.200798
                                                         0.133703       0.007744
                          1       6    5py               1.990311      -1.056793
                                                         1.465019      -2.017277
                                                         0.406554       0.200798
                                                         0.133703       0.007744
                          1       6    5pz               1.990311      -1.056793
                                                         1.465019      -2.017277
                                                         0.406554       0.200798
                                                         0.133703       0.007744

                          1       7    4dx2              1.990311       0.501660
                                                         1.465019       0.640939
                                                         0.406554       0.258323
                                                         0.133703       0.006080
                          1       7    4dxy              1.990311       0.868900
                                                         1.465019       1.110139
                                                         0.406554       0.447429
                                                         0.133703       0.010530
                          1       7    4dxz              1.990311       0.868900
                                                         1.465019       1.110139
                                                         0.406554       0.447429
                                                         0.133703       0.010530
                          1       7    4dy2              1.990311       0.501660
                                                         1.465019       0.640939
                                                         0.406554       0.258323
                                                         0.133703       0.006080
                          1       7    4dyz              1.990311       0.868900
                                                         1.465019       1.110139
                                                         0.406554       0.447429
                                                         0.133703       0.010530
                          1       7    4dz2              1.990311       0.501660
                                                         1.465019       0.640939
                                                         0.406554       0.258323
                                                         0.133703       0.006080

       Atomic covalent radius [Angstrom]:                                  0.990

       Atomic van der Waals radius [Angstrom]:                             1.750

     GTH Potential information for                                   GTH-SCAN-q7

       Description:                       Goedecker-Teter-Hutter pseudopotential
                                           Goedecker et al., PRB 54, 1703 (1996)
                                          Hartwigsen et al., PRB 58, 3641 (1998)
                                                      Krack, TCA 114, 145 (2005)

       Gaussian exponent of the core charge distribution:               3.057284
       Electronic configuration (s p d ...):                       2   5   0   0

       Parameters of the local part of the GTH pseudopotential:

                          rloc        C1          C2          C3          C4
                        0.404406   -6.394753

       Parameters of the non-local part of the GTH pseudopotential:

                   l      r(l)      h(i,j,l)

                   0    0.339247   15.226939   -4.934521
                                   -4.934521    6.367374
                   1    0.377245    4.332916

  7. Atomic kind: Al                                    Number of atoms:       1

     Orbital Basis Set                                   TZVP-MOLOPT-SCAN-GTH-q3

       Number of orbital shell sets:                                           1
       Number of orbital shells:                                               7
       Number of primitive Cartesian functions:                                4
       Number of Cartesian basis functions:                                   18
       Number of spherical basis functions:                                   17
       Norm type:                                                              2

       Normalised Cartesian orbitals:

                        Set   Shell   Orbital            Exponent    Coefficient

                          1       1    2s                0.957917       0.067931
                                                         0.339610       0.029082
                                                         0.152174      -0.126353
                                                         0.053370      -0.034414

                          1       2    3s                0.957917      -0.971845
                                                         0.339610       0.445850
                                                         0.152174       0.126740
                                                         0.053370      -0.098405

                          1       3    4s                0.957917      -0.527485
                                                         0.339610      -0.041502
                                                         0.152174      -0.070550
                                                         0.053370       0.037922

                          1       4    3px               0.957917       0.119074
                                                         0.339610      -0.193193
                                                         0.152174      -0.071308
                                                         0.053370      -0.002788
                          1       4    3py               0.957917       0.119074
                                                         0.339610      -0.193193
                                                         0.152174      -0.071308
                                                         0.053370      -0.002788
                          1       4    3pz               0.957917       0.119074
                                                         0.339610      -0.193193
                                                         0.152174      -0.071308
                                                         0.053370      -0.002788

                          1       5    4px               0.957917      -0.097740
                                                         0.339610       0.199566
                                                         0.152174      -0.057295
                                                         0.053370      -0.031696
                          1       5    4py               0.957917      -0.097740
                                                         0.339610       0.199566
                                                         0.152174      -0.057295
                                                         0.053370      -0.031696
                          1       5    4pz               0.957917      -0.097740
                                                         0.339610       0.199566
                                                         0.152174      -0.057295
                                                         0.053370      -0.031696

                          1       6    5px               0.957917      -1.388214
                                                         0.339610       0.250808
                                                         0.152174      -0.134104
                                                         0.053370       0.036255
                          1       6    5py               0.957917      -1.388214
                                                         0.339610       0.250808
                                                         0.152174      -0.134104
                                                         0.053370       0.036255
                          1       6    5pz               0.957917      -1.388214
                                                         0.339610       0.250808
                                                         0.152174      -0.134104
                                                         0.053370       0.036255

                          1       7    4dx2              0.957917       0.299321
                                                         0.339610       0.125328
                                                         0.152174       0.022679
                                                         0.053370       0.001303
                          1       7    4dxy              0.957917       0.518439
                                                         0.339610       0.217075
                                                         0.152174       0.039282
                                                         0.053370       0.002257
                          1       7    4dxz              0.957917       0.518439
                                                         0.339610       0.217075
                                                         0.152174       0.039282
                                                         0.053370       0.002257
                          1       7    4dy2              0.957917       0.299321
                                                         0.339610       0.125328
                                                         0.152174       0.022679
                                                         0.053370       0.001303
                          1       7    4dyz              0.957917       0.518439
                                                         0.339610       0.217075
                                                         0.152174       0.039282
                                                         0.053370       0.002257
                          1       7    4dz2              0.957917       0.299321
                                                         0.339610       0.125328
                                                         0.152174       0.022679
                                                         0.053370       0.001303

       Atomic covalent radius [Angstrom]:                                  1.180

       Atomic van der Waals radius [Angstrom]:                             1.840

     GTH Potential information for                                   GTH-SCAN-q3

       Description:                       Goedecker-Teter-Hutter pseudopotential
                                           Goedecker et al., PRB 54, 1703 (1996)
                                          Hartwigsen et al., PRB 58, 3641 (1998)
                                                      Krack, TCA 114, 145 (2005)

       Gaussian exponent of the core charge distribution:               2.468284
       Electronic configuration (s p d ...):                       2   1   0   0

       Parameters of the local part of the GTH pseudopotential:

                          rloc        C1          C2          C3          C4
                        0.450078   -7.508375

       Parameters of the non-local part of the GTH pseudopotential:

                   l      r(l)      h(i,j,l)

                   0    0.486969    6.953807   -1.888834
                                   -1.888834    2.444963
                   1    0.557859    1.850538

  8. Atomic kind: F                                     Number of atoms:       1

     Orbital Basis Set                                   TZVP-MOLOPT-SCAN-GTH-q7

       Number of orbital shell sets:                                           1
       Number of orbital shells:                                               7
       Number of primitive Cartesian functions:                                5
       Number of Cartesian basis functions:                                   18
       Number of spherical basis functions:                                   17
       Norm type:                                                              2

       Normalised Cartesian orbitals:

                        Set   Shell   Orbital            Exponent    Coefficient

                          1       1    2s               13.166455       0.444811
                                                         4.678636       0.203936
                                                         1.681884      -0.373508
                                                         0.583935      -0.259331
                                                         0.185712      -0.056029

                          1       2    3s               13.166455      -0.502454
                                                         4.678636      -0.252806
                                                         1.681884       0.335842
                                                         0.583935       0.215045
                                                         0.185712      -0.274623

                          1       3    4s               13.166455      -1.864888
                                                         4.678636      -0.601328
                                                         1.681884      -0.730395
                                                         0.583935       0.164047
                                                         0.185712       0.000360

                          1       4    3px              13.166455      -2.113946
                                                         4.678636      -1.829886
                                                         1.681884      -0.958916
                                                         0.583935      -0.297662
                                                         0.185712      -0.047232
                          1       4    3py              13.166455      -2.113946
                                                         4.678636      -1.829886
                                                         1.681884      -0.958916
                                                         0.583935      -0.297662
                                                         0.185712      -0.047232
                          1       4    3pz              13.166455      -2.113946
                                                         4.678636      -1.829886
                                                         1.681884      -0.958916
                                                         0.583935      -0.297662
                                                         0.185712      -0.047232

                          1       5    4px              13.166455       2.123544
                                                         4.678636       1.392986
                                                         1.681884       1.011036
                                                         0.583935       0.232948
                                                         0.185712      -0.186088
                          1       5    4py              13.166455       2.123544
                                                         4.678636       1.392986
                                                         1.681884       1.011036
                                                         0.583935       0.232948
                                                         0.185712      -0.186088
                          1       5    4pz              13.166455       2.123544
                                                         4.678636       1.392986
                                                         1.681884       1.011036
                                                         0.583935       0.232948
                                                         0.185712      -0.186088

                          1       6    5px              13.166455      -6.630251
                                                         4.678636     -13.203252
                                                         1.681884       5.460045
                                                         0.583935      -0.856136
                                                         0.185712       0.026241
                          1       6    5py              13.166455      -6.630251
                                                         4.678636     -13.203252
                                                         1.681884       5.460045
                                                         0.583935      -0.856136
                                                         0.185712       0.026241
                          1       6    5pz              13.166455      -6.630251
                                                         4.678636     -13.203252
                                                         1.681884       5.460045
                                                         0.583935      -0.856136
                                                         0.185712       0.026241

                          1       7    4dx2             13.166455      -1.218712
                                                         4.678636       0.786429
                                                         1.681884       1.464728
                                                         0.583935       0.453678
                                                         0.185712       0.002884
                          1       7    4dxy             13.166455      -2.110871
                                                         4.678636       1.362135
                                                         1.681884       2.536984
                                                         0.583935       0.785794
                                                         0.185712       0.004996
                          1       7    4dxz             13.166455      -2.110871
                                                         4.678636       1.362135
                                                         1.681884       2.536984
                                                         0.583935       0.785794
                                                         0.185712       0.004996
                          1       7    4dy2             13.166455      -1.218712
                                                         4.678636       0.786429
                                                         1.681884       1.464728
                                                         0.583935       0.453678
                                                         0.185712       0.002884
                          1       7    4dyz             13.166455      -2.110871
                                                         4.678636       1.362135
                                                         1.681884       2.536984
                                                         0.583935       0.785794
                                                         0.185712       0.004996
                          1       7    4dz2             13.166455      -1.218712
                                                         4.678636       0.786429
                                                         1.681884       1.464728
                                                         0.583935       0.453678
                                                         0.185712       0.002884

       Atomic covalent radius [Angstrom]:                                  0.720

       Atomic van der Waals radius [Angstrom]:                             1.470

     GTH Potential information for                                   GTH-SCAN-q7

       Description:                       Goedecker-Teter-Hutter pseudopotential
                                           Goedecker et al., PRB 54, 1703 (1996)
                                          Hartwigsen et al., PRB 58, 3641 (1998)
                                                      Krack, TCA 114, 145 (2005)

       Gaussian exponent of the core charge distribution:              10.972099
       Electronic configuration (s p d ...):                       2   5   0   0

       Parameters of the local part of the GTH pseudopotential:

                          rloc        C1          C2          C3          C4
                        0.213472  -21.468222    3.125912

       Parameters of the non-local part of the GTH pseudopotential:

                   l      r(l)      h(i,j,l)

                   0    0.195665   23.648584


 MOLECULE KIND INFORMATION


 All atoms are their own molecule, skipping detailed information


 TOTAL NUMBERS AND MAXIMUM NUMBERS

  Total number of            - Atomic kinds:                                   8
                             - Atoms:                                         16
                             - Shell sets:                                    16
                             - Shells:                                        97
                             - Primitive Cartesian functions:                 74
                             - Cartesian basis functions:                    228
                             - Spherical basis functions:                    217

  Maximum angular momentum of- Orbital basis functions:                        2
                             - Local part of the GTH pseudopotential:          2
                             - Non-local part of the GTH pseudopotential:      2


 MODULE QUICKSTEP: ATOMIC COORDINATES IN ANGSTROM

   Atom Kind Element         X             Y             Z       Z(eff)     Mass
      1    1 H     1     18.948405     19.529695     17.011010   1.0000   1.0079
      2    1 H     1     16.711455     17.732715     21.419800   1.0000   1.0079
      3    2 C     6     15.744005     16.176605     17.660070   4.0000  12.0107
      4    3 B     5     18.605885     17.033055     17.300440   3.0000  10.8110
      5    1 H     1     15.193855     15.419945     18.230000   1.0000   1.0079
      6    4 P    15     17.502865     15.479025     17.312390   5.0000  30.9738
      7    5 O     8     17.688395     17.810435     21.435680   6.0000  15.9994
      8    6 Cl   17     19.806145     19.580055     19.854000   7.0000  35.4530
      9    7 Al   13     18.178095     18.244835     19.534210   3.0000  26.9815
     10    4 P    15     19.102225     18.415895     16.146440   5.0000  30.9738
     11    3 B     5     15.870595     17.526445     18.342690   3.0000  10.8110
     12    1 H     1     18.060625     16.986385     21.798740   1.0000   1.0079
     13    8 F     9     17.798315     18.656055     15.201260   7.0000  18.9984
     14    4 P    15     16.055045     19.091415     19.044770   5.0000  30.9738
     15    1 H     1     15.284085     16.263485     16.666680   1.0000   1.0079
     16    4 P    15     18.978735     16.101245     18.864700   5.0000  30.9738



 SCF PARAMETERS         Density guess:                                    ATOMIC
                        --------------------------------------------------------
                        max_scf:                                             100
                        max_scf_history:                                       0
                        max_diis:                                              4
                        --------------------------------------------------------
                        eps_scf:                                        1.00E-05
                        eps_scf_history:                                0.00E+00
                        eps_diis:                                       1.00E-01
                        eps_eigval:                                     1.00E-05
                        --------------------------------------------------------
                        level_shift [a.u.]:                             0.000000
                        --------------------------------------------------------
                        Mixing method:                           DIRECT_P_MIXING
                        --------------------------------------------------------
                        No outer SCF

 PW_GRID| Information for grid number                                          1
 PW_GRID| Grid distributed over                                    16 processors
 PW_GRID| Real space group dimensions                                    16    1
 PW_GRID| the grid is blocked:                                                NO
 PW_GRID| Cutoff [a.u.]                                                    500.0
 PW_GRID| spherical cutoff:                                                   NO
 PW_GRID|   Bounds   1           -337     337                Points:         675
 PW_GRID|   Bounds   2           -337     337                Points:         675
 PW_GRID|   Bounds   3           -360     359                Points:         720
 PW_GRID| Volume element (a.u.^3)  0.9324E-03     Volume (a.u.^3)    305868.2650
 PW_GRID| Grid span                                                    FULLSPACE
 PW_GRID|   Distribution                         Average         Max         Min
 PW_GRID|   G-Vectors                         20503125.0    20503125    20503125
 PW_GRID|   G-Rays                               30375.0       30375       30375
 PW_GRID|   Real Space Points                 20503125.0    20898000    20412000

 PW_GRID| Information for grid number                                          2
 PW_GRID| Number of the reference grid                                         1
 PW_GRID| Grid distributed over                                    16 processors
 PW_GRID| Real space group dimensions                                    16    1
 PW_GRID| the grid is blocked:                                                NO
 PW_GRID| Cutoff [a.u.]                                                    166.7
 PW_GRID| spherical cutoff:                                                   NO
 PW_GRID|   Bounds   1           -200     199                Points:         400
 PW_GRID|   Bounds   2           -200     199                Points:         400
 PW_GRID|   Bounds   3           -216     215                Points:         432
 PW_GRID| Volume element (a.u.^3)  0.4425E-02     Volume (a.u.^3)    305868.2650
 PW_GRID| Grid span                                                    FULLSPACE
 PW_GRID|   Distribution                         Average         Max         Min
 PW_GRID|   G-Vectors                          4320000.0     4320800     4319200
 PW_GRID|   G-Rays                               10800.0       10802       10798
 PW_GRID|   Real Space Points                  4320000.0     4320000     4320000

 PW_GRID| Information for grid number                                          3
 PW_GRID| Number of the reference grid                                         1
 PW_GRID| Grid distributed over                                    16 processors
 PW_GRID| Real space group dimensions                                    16    1
 PW_GRID| the grid is blocked:                                                NO
 PW_GRID| Cutoff [a.u.]                                                     55.6
 PW_GRID| spherical cutoff:                                                   NO
 PW_GRID|   Bounds   1           -112     112                Points:         225
 PW_GRID|   Bounds   2           -112     112                Points:         225
 PW_GRID|   Bounds   3           -120     119                Points:         240
 PW_GRID| Volume element (a.u.^3)  0.2517E-01     Volume (a.u.^3)    305868.2650
 PW_GRID| Grid span                                                    FULLSPACE
 PW_GRID|   Distribution                         Average         Max         Min
 PW_GRID|   G-Vectors                           759375.0      759825      758925
 PW_GRID|   G-Rays                                3375.0        3377        3373
 PW_GRID|   Real Space Points                   759375.0      810000      756000

 PW_GRID| Information for grid number                                          4
 PW_GRID| Number of the reference grid                                         1
 PW_GRID| Grid distributed over                                    16 processors
 PW_GRID| Real space group dimensions                                    16    1
 PW_GRID| the grid is blocked:                                                NO
 PW_GRID| Cutoff [a.u.]                                                     18.5
 PW_GRID| spherical cutoff:                                                   NO
 PW_GRID|   Bounds   1            -67      67                Points:         135
 PW_GRID|   Bounds   2            -67      67                Points:         135
 PW_GRID|   Bounds   3            -67      67                Points:         135
 PW_GRID| Volume element (a.u.^3)  0.1243         Volume (a.u.^3)    305868.2650
 PW_GRID| Grid span                                                    FULLSPACE
 PW_GRID|   Distribution                         Average         Max         Min
 PW_GRID|   G-Vectors                           153773.4      154170      153630
 PW_GRID|   G-Rays                                1139.1        1142        1138
 PW_GRID|   Real Space Points                   153773.4      164025      145800

 POISSON| Solver                                                        ANALYTIC
 POISSON| Periodicity                                                       NONE

 RS_GRID| Information for grid number                                          1
 RS_GRID|   Bounds   1           -337     337                Points:         675
 RS_GRID|   Bounds   2           -337     337                Points:         675
 RS_GRID|   Bounds   3           -360     359                Points:         720
 RS_GRID| Real space distribution over                                  4 groups
 RS_GRID| Real space distribution along direction                              2
 RS_GRID| Border size                                                         35
 RS_GRID| Real space distribution over                                  4 groups
 RS_GRID| Real space distribution along direction                              3
 RS_GRID| Border size                                                         35
 RS_GRID|   Distribution                         Average         Max         Min
 RS_GRID|   Planes                                 238.8         239         238
 RS_GRID|   Distribution                         Average         Max         Min
 RS_GRID|   Planes                                 250.0         250         250

 RS_GRID| Information for grid number                                          2
 RS_GRID|   Bounds   1           -200     199                Points:         400
 RS_GRID|   Bounds   2           -200     199                Points:         400
 RS_GRID|   Bounds   3           -216     215                Points:         432
 RS_GRID| Real space distribution over                                  4 groups
 RS_GRID| Real space distribution along direction                              2
 RS_GRID| Border size                                                         27
 RS_GRID| Real space distribution over                                  4 groups
 RS_GRID| Real space distribution along direction                              3
 RS_GRID| Border size                                                         27
 RS_GRID|   Distribution                         Average         Max         Min
 RS_GRID|   Planes                                 154.0         154         154
 RS_GRID|   Distribution                         Average         Max         Min
 RS_GRID|   Planes                                 162.0         162         162

 RS_GRID| Information for grid number                                          3
 RS_GRID|   Bounds   1           -112     112                Points:         225
 RS_GRID|   Bounds   2           -112     112                Points:         225
 RS_GRID|   Bounds   3           -120     119                Points:         240
 RS_GRID| Real space fully replicated
 RS_GRID| Group size                                                           1

 RS_GRID| Information for grid number                                          4
 RS_GRID|   Bounds   1            -67      67                Points:         135
 RS_GRID|   Bounds   2            -67      67                Points:         135
 RS_GRID|   Bounds   3            -67      67                Points:         135
 RS_GRID| Real space fully replicated
 RS_GRID| Group size                                                           1

 Extrapolation method: initial_guess

 Atomic guess: The first density matrix is obtained in terms of atomic orbitals
               and electronic configurations assigned to each atomic kind

 Guess for atomic kind: H

 Electronic structure
    Total number of core electrons                                          0.00
    Total number of valence electrons                                       1.00
    Total number of electrons                                               1.00
    Multiplicity                                                   not specified
    S      1.00


 *******************************************************************************
                  Iteration          Convergence                     Energy [au]
 *******************************************************************************
                          1        0.364523E-02                  -0.422484553466
                          2        0.146100E-03                  -0.422490428911
                          3        0.266755E-04                  -0.422490480125
                          4        0.362968E-08                  -0.422490480723

 Energy components [Hartree]           Total Energy ::           -0.422490480723
                                        Band Energy ::           -0.192735382727
                                     Kinetic Energy ::            0.477952444388
                                   Potential Energy ::           -0.900442925111
                                      Virial (-V/T) ::            1.883959242566
                                        Core Energy ::           -0.479166166213
                                          XC Energy ::           -0.248560768168
                                     Coulomb Energy ::            0.305236453657
                       Total Pseudopotential Energy ::           -0.975131101124
                       Local Pseudopotential Energy ::           -0.975131101124
                    Nonlocal Pseudopotential Energy ::            0.000000000000
                                        Confinement ::            0.180124905236

 Orbital energies  State     L     Occupation   Energy[a.u.]          Energy[eV]

                       1     0          1.000      -0.192735           -5.244596


 Total Electron Density at R=0:                                         0.249202

 Guess for atomic kind: C

 Electronic structure
    Total number of core electrons                                          2.00
    Total number of valence electrons                                       4.00
    Total number of electrons                                               6.00
    Multiplicity                                                   not specified
    S   [  2.00] 2.00
    P      2.00


 *******************************************************************************
                  Iteration          Convergence                     Energy [au]
 *******************************************************************************
                          1        0.124377                      -5.269415449983
                          2        0.880091E-01                  -5.274432015385
                          3        0.424095E-03                  -5.279419090830
                          4        0.118108E-03                  -5.279419164687
                          5        0.144057E-06                  -5.279419172500

 Energy components [Hartree]           Total Energy ::           -5.279419172500
                                        Band Energy ::           -1.313739125276
                                     Kinetic Energy ::            3.405940495234
                                   Potential Energy ::           -8.685359667734
                                      Virial (-V/T) ::            2.550062069460
                                        Core Energy ::           -8.290068838701
                                          XC Energy ::           -1.377173731606
                                     Coulomb Energy ::            4.387823397806
                       Total Pseudopotential Energy ::          -11.730281123094
                       Local Pseudopotential Energy ::          -12.376528803709
                    Nonlocal Pseudopotential Energy ::            0.646247680614
                                        Confinement ::            0.342717891594

 Orbital energies  State     L     Occupation   Energy[a.u.]          Energy[eV]

                       1     0          2.000      -0.480601          -13.077809

                       1     1          2.000      -0.176269           -4.796521


 Total Electron Density at R=0:                                         0.000000

 Guess for atomic kind: B

 Electronic structure
    Total number of core electrons                                          2.00
    Total number of valence electrons                                       3.00
    Total number of electrons                                               5.00
    Multiplicity                                                   not specified
    S   [  2.00] 2.00
    P      1.00


 *******************************************************************************
                  Iteration          Convergence                     Energy [au]
 *******************************************************************************
                          1        0.316646E-01                  -2.529384606790
                          2        0.137591E-01                  -2.530500543548
                          3        0.258896E-03                  -2.530854993129
                          4        0.287113E-05                  -2.530855115511
                          5        0.856246E-08                  -2.530855115527

 Energy components [Hartree]           Total Energy ::           -2.530855115527
                                        Band Energy ::           -0.763279797743
                                     Kinetic Energy ::            1.380412322607
                                   Potential Energy ::           -3.911267438134
                                      Virial (-V/T) ::            2.833405189217
                                        Core Energy ::           -3.752414334987
                                          XC Energy ::           -0.784170852583
                                     Coulomb Energy ::            2.005730072042
                       Total Pseudopotential Energy ::           -5.162535765060
                       Local Pseudopotential Energy ::           -5.563464475473
                    Nonlocal Pseudopotential Energy ::            0.400928710413
                                        Confinement ::            0.297091074664

 Orbital energies  State     L     Occupation   Energy[a.u.]          Energy[eV]

                       1     0          2.000      -0.324628           -8.833569

                       1     1          1.000      -0.114024           -3.102761


 Total Electron Density at R=0:                                         0.000031

 Guess for atomic kind: P

 Electronic structure
    Total number of core electrons                                         10.00
    Total number of valence electrons                                       5.00
    Total number of electrons                                              15.00
    Multiplicity                                                   not specified
    S   [  2.00  2.00] 2.00
    P   [  6.00] 3.00


 *******************************************************************************
                  Iteration          Convergence                     Energy [au]
 *******************************************************************************
                          1        0.628857E-01                  -6.286788481624
                          2        0.352344E-01                  -6.288166288969
                          3        0.747868E-03                  -6.288881759910
                          4        0.612687E-06                  -6.288882066609

 Energy components [Hartree]           Total Energy ::           -6.288882066609
                                        Band Energy ::           -1.497693252013
                                     Kinetic Energy ::            2.380855553462
                                   Potential Energy ::           -8.669737620071
                                      Virial (-V/T) ::            3.641437888773
                                        Core Energy ::          -10.065619171862
                                          XC Energy ::           -1.458769268370
                                     Coulomb Energy ::            5.235506373622
                       Total Pseudopotential Energy ::          -12.506808970943
                       Local Pseudopotential Energy ::          -13.844888599948
                    Nonlocal Pseudopotential Energy ::            1.338079629005
                                        Confinement ::            0.603342456196

 Orbital energies  State     L     Occupation   Energy[a.u.]          Energy[eV]

                       1     0          2.000      -0.483501          -13.156723

                       1     1          3.000      -0.176897           -4.813620


 Total Electron Density at R=0:                                         0.000210

 Guess for atomic kind: O

 Electronic structure
    Total number of core electrons                                          2.00
    Total number of valence electrons                                       6.00
    Total number of electrons                                               8.00
    Multiplicity                                                   not specified
    S   [  2.00] 2.00
    P      4.00


 *******************************************************************************
                  Iteration          Convergence                     Energy [au]
 *******************************************************************************
                          1        0.767843                     -15.548688912140
                          2        0.707350                     -15.552891087148
                          3        0.233352E-01                 -15.638471141341
                          4        0.140601E-02                 -15.638569711398
                          5        0.207920E-04                 -15.638570020034
                          6        0.225984E-06                 -15.638570020103

 Energy components [Hartree]           Total Energy ::          -15.638570020103
                                        Band Energy ::           -2.987115069665
                                     Kinetic Energy ::           11.758429295155
                                   Potential Energy ::          -27.396999315258
                                      Virial (-V/T) ::            2.329988013497
                                        Core Energy ::          -26.117692585696
                                          XC Energy ::           -3.153357461230
                                     Coulomb Energy ::           13.632480026823
                       Total Pseudopotential Energy ::          -37.911237752663
                       Local Pseudopotential Energy ::          -39.187422590466
                    Nonlocal Pseudopotential Energy ::            1.276184837802
                                        Confinement ::            0.351158718120

 Orbital energies  State     L     Occupation   Energy[a.u.]          Energy[eV]

                       1     0          2.000      -0.854976          -23.265087

                       1     1          4.000      -0.319291           -8.688340


 Total Electron Density at R=0:                                         0.000001

 Guess for atomic kind: Cl

 Electronic structure
    Total number of core electrons                                         10.00
    Total number of valence electrons                                       7.00
    Total number of electrons                                              17.00
    Multiplicity                                                   not specified
    S   [  2.00  2.00] 2.00
    P   [  6.00] 5.00


 *******************************************************************************
                  Iteration          Convergence                     Energy [au]
 *******************************************************************************
                          1        0.168525E-01                 -14.779020970431
                          2        0.182680E-01                 -14.779082242678
                          3        0.150516E-03                 -14.779143853879
                          4        0.370067E-05                 -14.779143857326
                          5        0.317509E-08                 -14.779143857329

 Energy components [Hartree]           Total Energy ::          -14.779143857329
                                        Band Energy ::           -2.965247378479
                                     Kinetic Energy ::            5.572175315872
                                   Potential Energy ::          -20.351319173201
                                      Virial (-V/T) ::            3.652311354101
                                        Core Energy ::          -24.692790003969
                                          XC Energy ::           -2.744840862011
                                     Coulomb Energy ::           12.658487008651
                       Total Pseudopotential Energy ::          -30.323862198887
                       Local Pseudopotential Energy ::          -33.454909953544
                    Nonlocal Pseudopotential Energy ::            3.131047754657
                                        Confinement ::            0.588968790466

 Orbital energies  State     L     Occupation   Energy[a.u.]          Energy[eV]

                       1     0          2.000      -0.737137          -20.058527

                       1     1          5.000      -0.298195           -8.114286


 Total Electron Density at R=0:                                         0.000217

 Guess for atomic kind: Al

 Electronic structure
    Total number of core electrons                                         10.00
    Total number of valence electrons                                       3.00
    Total number of electrons                                              13.00
    Multiplicity                                                   not specified
    S   [  2.00  2.00] 2.00
    P   [  6.00] 1.00


 *******************************************************************************
                  Iteration          Convergence                     Energy [au]
 *******************************************************************************
                          1        0.381633E-01                  -1.862658253756
                          2        0.121661E-01                  -1.865412727842
                          3        0.656064E-04                  -1.865712057717
                          4        0.224083E-05                  -1.865712062711
                          5        0.874386E-08                  -1.865712062719

 Energy components [Hartree]           Total Energy ::           -1.865712062719
                                        Band Energy ::           -0.560078653030
                                     Kinetic Energy ::            0.694183318306
                                   Potential Energy ::           -2.559895381025
                                      Virial (-V/T) ::            3.687635979602
                                        Core Energy ::           -2.748971595218
                                          XC Energy ::           -0.604522235497
                                     Coulomb Energy ::            1.487781767997
                       Total Pseudopotential Energy ::           -3.498280965628
                       Local Pseudopotential Energy ::           -3.972478316603
                    Nonlocal Pseudopotential Energy ::            0.474197350975
                                        Confinement ::            0.551260521043

 Orbital energies  State     L     Occupation   Energy[a.u.]          Energy[eV]

                       1     0          2.000      -0.249124           -6.779012

                       1     1          1.000      -0.061830           -1.682492


 Total Electron Density at R=0:                                         0.000146

 Guess for atomic kind: F

 Electronic structure
    Total number of core electrons                                          2.00
    Total number of valence electrons                                       7.00
    Total number of electrons                                               9.00
    Multiplicity                                                   not specified
    S   [  2.00] 2.00
    P      5.00


 *******************************************************************************
                  Iteration          Convergence                     Energy [au]
 *******************************************************************************
                          1         1.28404                     -23.721982260823
                          2        0.967140                     -23.745199214477
                          3        0.177678E-01                 -23.912277605604
                          4        0.501134E-02                 -23.912319183814
                          5        0.565229E-04                 -23.912322958237
                          6        0.248892E-04                 -23.912322958650
                          7        0.375431E-07                 -23.912322958749

 Energy components [Hartree]           Total Energy ::          -23.912322958749
                                        Band Energy ::           -4.137765617489
                                     Kinetic Energy ::           18.745855544912
                                   Potential Energy ::          -42.658178503662
                                      Virial (-V/T) ::            2.275605847994
                                        Core Energy ::          -40.690899234886
                                          XC Energy ::           -4.360074555418
                                     Coulomb Energy ::           21.138650831555
                       Total Pseudopotential Energy ::          -59.470866642662
                       Local Pseudopotential Energy ::          -61.156697242738
                    Nonlocal Pseudopotential Energy ::            1.685830600076
                                        Confinement ::            0.341118628638

 Orbital energies  State     L     Occupation   Energy[a.u.]          Energy[eV]

                       1     0          2.000      -1.072444          -29.182679

                       1     1          5.000      -0.398576          -10.845794


 Total Electron Density at R=0:                                         0.000006
 Re-scaling the density matrix to get the right number of electrons
                  # Electrons              Trace(P)               Scaling factor
                           58                58.000                        1.000

 Number of electrons:                                                         58
 Number of occupied orbitals:                                                 29
 Number of molecular orbitals:                                                29

 Number of orbital functions:                                                217
 Number of independent orbital functions:                                    217


 SCF WAVEFUNCTION OPTIMIZATION

  Step     Update method      Time    Convergence         Total energy    Change
  ------------------------------------------------------------------------------
     1 P_Mix/Diag. 0.40E+00   26.9     1.55815570       -97.6479614531 -9.76E+01
     2 P_Mix/Diag. 0.40E+00   34.2     0.84061336       -97.7503479062 -1.02E-01
     3 P_Mix/Diag. 0.40E+00   34.5     0.49339600       -97.8135236113 -6.32E-02
     4 P_Mix/Diag. 0.40E+00   33.6     0.32677643       -97.8547466439 -4.12E-02
     5 P_Mix/Diag. 0.40E+00   33.6     0.34116246       -97.8829832839 -2.82E-02
     6 P_Mix/Diag. 0.40E+00   33.8     1.71522918       -97.9054820945 -2.25E-02
     7 P_Mix/Diag. 0.40E+00   34.9     1.14827774       -96.3033513960  1.60E+00
     8 P_Mix/Diag. 0.40E+00   33.8     0.34863807       -96.9646273402 -6.61E-01
     9 P_Mix/Diag. 0.40E+00   34.3     0.21245275       -97.3429672670 -3.78E-01
    10 P_Mix/Diag. 0.40E+00   35.0     0.14281969       -97.5693966942 -2.26E-01
    11 P_Mix/Diag. 0.40E+00   34.3     0.08989847       -97.7071357042 -1.38E-01
    12 DIIS/Diag.  0.52E-01   34.4     0.05714685       -97.7911218700 -8.40E-02
    13 P_Mix/Diag. 0.40E+00   33.7     0.20550747       -97.9252913834 -1.34E-01
    14 P_Mix/Diag. 0.40E+00   34.2     0.13948261       -97.9321853113 -6.89E-03
    15 P_Mix/Diag. 0.40E+00   33.8     0.06160371       -97.9155958317  1.66E-02
    16 P_Mix/Diag. 0.40E+00   34.2     0.04827422       -97.9152518633  3.44E-04
    17 P_Mix/Diag. 0.40E+00   33.9     0.19468148       -97.9191320670 -3.88E-03
    18 P_Mix/Diag. 0.40E+00   34.2     0.24056138       -97.9283157373 -9.18E-03
    19 P_Mix/Diag. 0.40E+00   33.1     0.05401008       -97.9110741034  1.72E-02
    20 P_Mix/Diag. 0.40E+00   33.3     0.07284628       -97.9104639773  6.10E-04
    21 P_Mix/Diag. 0.40E+00   33.3     0.05274905       -97.9082072029  2.26E-03
    22 DIIS/Diag.  0.70E-01   33.4     0.01063248       -97.9143258993 -6.12E-03
    23 P_Mix/Diag. 0.40E+00   33.7     0.04901570       -97.9222813858 -7.96E-03
    24 P_Mix/Diag. 0.40E+00   33.1     0.16139810       -97.9223209335 -3.95E-05
    25 P_Mix/Diag. 0.40E+00   33.7     0.15801223       -97.9301054895 -7.78E-03
    26 P_Mix/Diag. 0.40E+00   33.6     7.27728443       -97.8964574325  3.36E-02
    27 P_Mix/Diag. 0.40E+00   34.0     3.07335473       -88.4240173508  9.47E+00
    28 P_Mix/Diag. 0.40E+00   34.2     6.11848458       -90.5637061174 -2.14E+00
    29 P_Mix/Diag. 0.40E+00   33.9     4.26046072       -84.1978161661  6.37E+00
    30 P_Mix/Diag. 0.40E+00   33.6     4.55006549       -81.2972616010  2.90E+00
    31 P_Mix/Diag. 0.40E+00   34.1     3.65949239       -74.6673191637  6.63E+00
    32 P_Mix/Diag. 0.40E+00   34.8     2.70907177       -77.2203858104 -2.55E+00
    33 P_Mix/Diag. 0.40E+00   33.4     3.41662239       -73.0823524703  4.14E+00
    34 P_Mix/Diag. 0.40E+00   33.3     3.82091179       -74.8022424477 -1.72E+00
    35 P_Mix/Diag. 0.40E+00   33.6     3.41984274       -69.3370751607  5.47E+00
    36 P_Mix/Diag. 0.40E+00   33.4     2.82561148       -72.4869450552 -3.15E+00
    37 P_Mix/Diag. 0.40E+00   33.5     3.41386058       -70.8427794377  1.64E+00
    38 P_Mix/Diag. 0.40E+00   34.5     3.72513924       -74.0276545490 -3.18E+00
    39 P_Mix/Diag. 0.40E+00   34.2    19.24073449       -70.6881741270  3.34E+00
    40 P_Mix/Diag. 0.40E+00   33.4     8.50200956       -60.2565396571  1.04E+01
    41 P_Mix/Diag. 0.40E+00   33.4     3.38897704       -64.4617448090 -4.21E+00
    42 P_Mix/Diag. 0.40E+00   33.2    21.04484907       -70.1860692768 -5.72E+00
    43 P_Mix/Diag. 0.40E+00   33.6     9.47680897       -62.5170669395  7.67E+00
    44 P_Mix/Diag. 0.40E+00   33.7     4.10428977       -70.8809490919 -8.36E+00
    45 P_Mix/Diag. 0.40E+00   33.2     4.02908532       -69.5882849021  1.29E+00
    46 P_Mix/Diag. 0.40E+00   33.4     3.62480117       -74.4303193961 -4.84E+00
    47 P_Mix/Diag. 0.40E+00   34.8     3.35817958       -71.7452747701  2.69E+00
    48 P_Mix/Diag. 0.40E+00   33.5     2.81493437       -75.0213926329 -3.28E+00
    49 P_Mix/Diag. 0.40E+00   33.3     3.05544881       -68.7294302058  6.29E+00
    50 P_Mix/Diag. 0.40E+00   33.4    61.01822395       -74.2863065313 -5.56E+00
    51 P_Mix/Diag. 0.40E+00   33.5    24.72735568       -69.2712552664  5.02E+00
    52 P_Mix/Diag. 0.40E+00   33.4    15.95303107       -70.9208227118 -1.65E+00
    53 P_Mix/Diag. 0.40E+00   33.3     8.06258557       -72.9104927636 -1.99E+00
    54 P_Mix/Diag. 0.40E+00   34.2     6.21441021       -73.2909129405 -3.80E-01
    55 P_Mix/Diag. 0.40E+00   34.5     3.05265307       -78.8663092507 -5.58E+00
    56 P_Mix/Diag. 0.40E+00   34.0     4.63662753       -77.1550048269  1.71E+00
    57 P_Mix/Diag. 0.40E+00   33.4     3.79564579       -67.2905851876  9.86E+00
    58 P_Mix/Diag. 0.40E+00   33.4    12.37146647       -75.1076380292 -7.82E+00
    59 P_Mix/Diag. 0.40E+00   34.1     6.74138571       -67.6294204144  7.48E+00
    60 P_Mix/Diag. 0.40E+00   33.5    24.83007352       -70.3299025331 -2.70E+00
    61 P_Mix/Diag. 0.40E+00   33.7    12.88353149       -60.8311271554  9.50E+00
    62 P_Mix/Diag. 0.40E+00   33.7    13.67977036       -70.6704663122 -9.84E+00
    63 P_Mix/Diag. 0.40E+00   33.4     7.23013361       -66.1188099063  4.55E+00
    64 P_Mix/Diag. 0.40E+00   33.5    20.84647694       -69.1170566602 -3.00E+00
    65 P_Mix/Diag. 0.40E+00   33.8    12.54264933       -59.6965430521  9.42E+00
    66 P_Mix/Diag. 0.40E+00   33.6     6.99173781       -65.4063463459 -5.71E+00
    67 P_Mix/Diag. 0.40E+00   33.5     4.23632648       -68.3475901107 -2.94E+00
    68 P_Mix/Diag. 0.40E+00   33.8     3.27127048       -71.8800785512 -3.53E+00
    69 P_Mix/Diag. 0.40E+00   33.7     3.19171316       -65.5696663870  6.31E+00
    70 P_Mix/Diag. 0.40E+00   33.9     4.09774265       -71.8121187624 -6.24E+00
    71 P_Mix/Diag. 0.40E+00   35.2     3.55366142       -69.5373504879  2.27E+00
    72 P_Mix/Diag. 0.40E+00   34.1    13.81602694       -73.6865573181 -4.15E+00
    73 P_Mix/Diag. 0.40E+00   34.7     6.13321210       -63.0366297585  1.06E+01
    74 P_Mix/Diag. 0.40E+00   34.7     3.86037389       -70.0280211231 -6.99E+00
    75 P_Mix/Diag. 0.40E+00   34.2     3.58949659       -66.2934191613  3.73E+00
    76 P_Mix/Diag. 0.40E+00   33.7     2.83668301       -72.0982489087 -5.80E+00
    77 P_Mix/Diag. 0.40E+00   35.0    47.19847087       -69.1394278382  2.96E+00
    78 P_Mix/Diag. 0.40E+00   34.6    19.75298620       -62.7236534126  6.42E+00
    79 P_Mix/Diag. 0.40E+00   34.7    27.39094684       -64.3261135644 -1.60E+00
    80 P_Mix/Diag. 0.40E+00   34.3    12.25685424       -67.4534872812 -3.13E+00
    81 P_Mix/Diag. 0.40E+00   33.8     8.24029642       -69.8984269965 -2.44E+00
    82 P_Mix/Diag. 0.40E+00   34.8     4.20900331       -72.5543254698 -2.66E+00
    83 P_Mix/Diag. 0.40E+00   34.3     4.89694830       -69.0684334828  3.49E+00
    84 P_Mix/Diag. 0.40E+00   34.9     2.79709897       -74.0927727814 -5.02E+00
    85 P_Mix/Diag. 0.40E+00   35.0     3.02493690       -70.9220281098  3.17E+00
    86 P_Mix/Diag. 0.40E+00   33.9     3.97316651       -75.2802140238 -4.36E+00
    87 P_Mix/Diag. 0.40E+00   34.6     3.40428087       -72.1028797755  3.18E+00
    88 P_Mix/Diag. 0.40E+00   34.1     2.90040288       -74.6954797685 -2.59E+00
    89 P_Mix/Diag. 0.40E+00   33.5     3.05582999       -70.2735499782  4.42E+00
    90 P_Mix/Diag. 0.40E+00   33.4     3.79194464       -74.5193658964 -4.25E+00
    91 P_Mix/Diag. 0.40E+00   33.3     7.91478819       -71.7614851170  2.76E+00
    92 P_Mix/Diag. 0.40E+00   33.7     3.81747867       -69.3729257193  2.39E+00
    93 P_Mix/Diag. 0.40E+00   33.9     3.99840679       -71.7924293524 -2.42E+00
    94 P_Mix/Diag. 0.40E+00   33.5     5.64200044       -70.0317813514  1.76E+00
    95 P_Mix/Diag. 0.40E+00   33.5    26.05889740       -67.3044143343  2.73E+00
    96 P_Mix/Diag. 0.40E+00   33.4    11.81319288       -69.8673275473 -2.56E+00
    97 P_Mix/Diag. 0.40E+00   33.7     5.75361321       -68.9337764756  9.34E-01
    98 P_Mix/Diag. 0.40E+00   34.3     4.75128087       -67.1552480966  1.78E+00
    99 P_Mix/Diag. 0.40E+00   33.7     4.07273931       -65.4061703020  1.75E+00
   100 P_Mix/Diag. 0.40E+00   33.6     3.18909317       -69.8693175024 -4.46E+00

  Leaving inner SCF loop after reaching   100 steps.


  Electronic density on regular grids:        -57.9999999996        0.0000000004
  Core density on regular grids:               57.9999999938       -0.0000000062
  Total charge density on r-space grids:       -0.0000000058
  Total charge density g-space grids:          -0.0000000058

  Overlap energy of the core charge distribution:               0.00000099434909
  Self energy of the core charge distribution:               -245.00534448292757
  Core Hamiltonian energy:                                     81.68808128149198
  Hartree energy:                                             114.13295720117189
  Exchange-correlation energy:                                -20.68501249653069

  Total energy:                                               -69.86931750244531

 *******************************************************************************
 *   ___                                                                       *
 *  /   \                                                                      *
 * [ABORT]                                                                     *
 *  \___/     SCF run NOT converged. To continue the calculation regardless,   *
 *    |             please set the keyword IGNORE_CONVERGENCE_FAILURE.         *
 *  O/|                                                                        *
 * /| |                                                                        *
 * / \                                                            qs_scf.F:702 *
 *******************************************************************************


 ===== Routine Calling Stack ===== 

            3 scf_env_do_scf
            2 qs_energies
            1 CP2K
