 DBCSR| CPU Multiplication driver                                           XSMM (U)
 DBCSR| Multrec recursion limit                                              512 (U)
 DBCSR| Multiplication stack size                                           1000 (D)
 DBCSR| Maximum elements for images                                    UNLIMITED (U)
 DBCSR| Multiplicative factor virtual images                                   1 (U)
 DBCSR| Use multiplication densification                                       T (D)
 DBCSR| Multiplication size stacks                                             3 (U)
 DBCSR| Use memory pool for CPU allocation                                     F (U)
 DBCSR| Number of 3D layers                                               SINGLE (U)
 DBCSR| Use MPI memory allocation                                              F (U)
 DBCSR| Use RMA algorithm                                                      F (U)
 DBCSR| Use Communication thread                                               T (U)
 DBCSR| Communication thread load                                             87 (D)
 DBCSR| MPI: My process id                                                     0
 DBCSR| MPI: Number of processes                                               1
 DBCSR| OMP: Current number of threads                                         1
 DBCSR| OMP: Max number of threads                                             1
 DBCSR| Split modifier for TAS multiplication algorithm                  1.0E+00 (U)


  **** **** ******  **  PROGRAM STARTED AT               2026-05-30 14:41:23.436
 ***** ** ***  *** **   PROGRAM STARTED ON                            spark-c86c
 **    ****   ******    PROGRAM STARTED BY                              kuehne88
 ***** **    ** ** **   PROGRAM PROCESS ID                                136391
  **** **  *******  **  PROGRAM STARTED IN /home/kuehne88/molecular-skala-final-
                                           20260530-prhead/skala-molopt-bench/ru
                                           ns/H2O_GPW_native_pbe_virial_minus

 CP2K| version string:                 CP2K version 2026.1 (Development Version)
 CP2K| source code revision number:                                   362771334d
 CP2K| cp2kflags: omp libint fftw3 libxc gauxc gauxc_mpi gauxc_onedft gauxc_host
 CP2K|             gauxc_device gauxc_cuda parallel scalapack xsmm spglib libtor
 CP2K|            rch
 CP2K| is freely available from                            https://www.cp2k.org/
 CP2K| Program compiled at                                   2026-05-29 22:13:32
 CP2K| Program compiled on                                            spark-c86c
 CP2K| Program compiled for                                              aarch64
 CP2K| Data directory path        /home/kuehne88/cp2k-periodic-skala-verify/data
 CP2K| Input file name                                                 input.inp

 GLOBAL| Force Environment number                                              1
 GLOBAL| Basis set file name                                    BASIS_MOLOPT_UZH
 GLOBAL| Potential file name                                       POTENTIAL_UZH
 GLOBAL| MM Potential file name                                     MM_POTENTIAL
 GLOBAL| Coordinate file name                                      __STD_INPUT__
 GLOBAL| Method name                                                        CP2K
 GLOBAL| Project name                                         H2O_GPW_native_pbe
 GLOBAL| Run type                                                         ENERGY
 GLOBAL| FFT library                                                       FFTW3
 GLOBAL| Diagonalization library                                       ScaLAPACK
 GLOBAL| Cholesky decomposition library                                ScaLAPACK
 GLOBAL| DGEMM library                                                      BLAS
 GLOBAL| Direct generalized diagonalization requested                          F
 GLOBAL| Orthonormality check for eigenvectors                          DISABLED
 GLOBAL| Matrix multiplication library                                 ScaLAPACK
 GLOBAL| All-to-all communication in single precision                          F
 GLOBAL| FFTs using library dependent lengths                                  F
 GLOBAL| Grid backend                                                       AUTO
 GLOBAL| Global print level                                                  LOW
 GLOBAL| MPI I/O enabled                                                       T
 GLOBAL| Total number of message passing processes                             1
 GLOBAL| Number of distributed systems (nodes)                                 1
 GLOBAL| Number of threads for this process                                    1
 GLOBAL| This output is from process                                           0
 GLOBAL| OpenMP stack size per thread (OMP_STACKSIZE)                       512M
 GLOBAL| CPU model name                                                  UNKNOWN
 GLOBAL| CPUID                                                              2200
 GLOBAL| Compiled for CPUID                                                 2000

 *** HINT in environment.F:970 :: The compiler target flags (arm_arch64)   ***
 *** used to build this binary cannot exploit all extensions of this CPU   ***
 *** model (arm_sve256). Consider compiler target flags as part of FCFLAGS ***
 *** and CFLAGS (ARCH file).                                               ***


 MEMORY| system memory details [Kb]
 MEMORY|                        rank 0           min           max       average
 MEMORY| MemTotal            125508532     125508532     125508532     125508532
 MEMORY| MemFree              49511812      49511812      49511812      49511812
 MEMORY| Buffers               1405112       1405112       1405112       1405112
 MEMORY| Cached               63340684      63340684      63340684      63340684
 MEMORY| Slab                  3502728       3502728       3502728       3502728
 MEMORY| SReclaimable          2646412       2646412       2646412       2646412
 MEMORY| MemLikelyFree       116904020     116904020     116904020     116904020


 GENERATE|  Preliminary Number of Bonds generated:                             0
 GENERATE|  Achieved consistency in connectivity generation.

 *******************************************************************************
 *******************************************************************************
 **                                                                           **
 **     #####                         ##              ##                      **
 **    ##   ##            ##          ##              ##                      **
 **   ##     ##                       ##            ######                    **
 **   ##     ##  ##   ##  ##   #####  ##  ##   ####   ##    #####    #####    **
 **   ##     ##  ##   ##  ##  ##      ## ##   ##      ##   ##   ##  ##   ##   **
 **   ##  ## ##  ##   ##  ##  ##      ####     ###    ##   ######   ######    **
 **    ##  ###   ##   ##  ##  ##      ## ##      ##   ##   ##       ##        **
 **     #######   #####   ##   #####  ##  ##  ####    ##    #####   ##        **
 **           ##                                                    ##        **
 **                                                                           **
 **                                                ... make the atoms dance   **
 **                                                                           **
 **            Copyright (C) by CP2K developers group (2000-2026)             **
 **                      J. Chem. Phys. 152, 194103 (2020)                    **
 **                                                                           **
 *******************************************************************************


 TOTAL NUMBERS AND MAXIMUM NUMBERS

  Total number of            - Atomic kinds:                                   2
                             - Atoms:                                          3
                             - Shell sets:                                     3
                             - Shells:                                        21
                             - Primitive Cartesian functions:                 15
                             - Cartesian basis functions:                     64
                             - Spherical basis functions:                     57

  Maximum angular momentum of- Orbital basis functions:                        3
                             - Local part of the GTH pseudopotential:          2
                             - Non-local part of the GTH pseudopotential:      0


 SCF PARAMETERS         Density guess:                                    ATOMIC
                        --------------------------------------------------------
                        max_scf:                                             100
                        max_scf_history:                                       0
                        max_diis:                                              4
                        --------------------------------------------------------
                        eps_scf:                                        1.00E-08
                        eps_scf_history:                                0.00E+00
                        eps_diis:                                       1.00E-01
                        eps_eigval:                                     1.00E-05
                        --------------------------------------------------------
                        level_shift [a.u.]:                             0.000000
                        --------------------------------------------------------
                        Mixing method:                           DIRECT_P_MIXING
                        --------------------------------------------------------
                        No outer SCF

 Extrapolation method: initial_guess

 Number of electrons:                                                          8
 Number of occupied orbitals:                                                  4
 Number of molecular orbitals:                                                 4

 Number of orbital functions:                                                 57
 Number of independent orbital functions:                                     57


 SCF WAVEFUNCTION OPTIMIZATION

  Step     Update method      Time    Convergence         Total energy    Change
  ------------------------------------------------------------------------------
     1 P_Mix/Diag. 0.40E+00    3.0     0.65420386       -17.0499408263 -1.70E+01
     2 P_Mix/Diag. 0.40E+00    2.0     0.43592128       -17.1175071008 -6.76E-02
     3 P_Mix/Diag. 0.40E+00    2.0     0.25733293       -17.1590570479 -4.15E-02
     4 P_Mix/Diag. 0.40E+00    2.0     0.15442747       -17.1836287200 -2.46E-02
     5 P_Mix/Diag. 0.40E+00    2.0     0.09215076       -17.1982457811 -1.46E-02
     6 DIIS/Diag.  0.24E-02    2.0     0.05477114       -17.2069778094 -8.73E-03
     7 DIIS/Diag.  0.24E-03    2.0     0.00006924       -17.2200369368 -1.31E-02
     8 DIIS/Diag.  0.11E-03    1.9     0.00007111       -17.2200369498 -1.30E-08
     9 DIIS/Diag.  0.17E-03    2.0     0.00006191       -17.2200369479  1.81E-09
    10 DIIS/Diag.  0.20E-04    1.9     0.00001068       -17.2200369515 -3.58E-09
    11 DIIS/Diag.  0.14E-05    2.0     0.00000031       -17.2200369516 -7.11E-11
    12 DIIS/Diag.  0.12E-06    2.0     0.00000018       -17.2200369516 -4.19E-13
    13 DIIS/Diag.  0.54E-07    2.0     0.00000001       -17.2200369516  1.78E-14
    14 DIIS/Diag.  0.15E-07    1.9     3.9332E-09       -17.2200369516 -7.11E-15

  *** SCF run converged in    14 steps ***


  Electronic density on regular grids:         -8.0000000000        0.0000000000
  Core density on regular grids:                7.9999999997       -0.0000000003
  Total charge density on r-space grids:       -0.0000000002
  Total charge density g-space grids:          -0.0000000002

  Overlap energy of the core charge distribution:               0.00000007088701
  Self energy of the core charge distribution:                -44.35427365113802
  Core Hamiltonian energy:                                     12.92982443040542
  Hartree energy:                                              18.43762695043258
  Exchange-correlation energy:                                 -4.23321475218512

  Total energy:                                               -17.22003695159814

 ENERGY| Total FORCE_EVAL ( QS ) energy [hartree]            -17.220036951598143

 -------------------------------------------------------------------------------
 -                                                                             -
 -                                DBCSR STATISTICS                             -
 -                                                                             -
 -------------------------------------------------------------------------------
 COUNTER                                    TOTAL       BLAS       SMM       ACC
 flops    29 x    14 x     4                45472       0.0%    100.0%      0.0%     
 flops    14 x    29 x     4                45472       0.0%    100.0%      0.0%     
 flops    14 x    14 x     4                65856       0.0%    100.0%      0.0%     
 flops    29 x    29 x     4                94192       0.0%    100.0%      0.0%     
 flops inhomo. stacks                           0       0.0%      0.0%      0.0%
 flops total                       250.992000E+03       0.0%    100.0%      0.0%
 flops max/rank                    250.992000E+03       0.0%    100.0%      0.0%
 matmuls inhomo. stacks                         0       0.0%      0.0%      0.0%
 matmuls total                                 84       0.0%    100.0%      0.0%
 number of processed stacks                    56       0.0%    100.0%      0.0%
 average stack size                                     0.0       1.5       0.0
 marketing flops                   363.888000E+03
 -------------------------------------------------------------------------------
 # multiplications                             14
 max memory usage/rank              19.989246E+09
 # max total images/rank                        1
 # max 3D layers                                1
 # MPI messages exchanged                       0
 -------------------------------------------------------------------------------
 -                                                                             -
 -                      DBCSR MESSAGE PASSING PERFORMANCE                      -
 -                                                                             -
 -------------------------------------------------------------------------------
 ROUTINE             CALLS      AVE VOLUME [Bytes]
 MP_Bcast                5                     12.
 MP_Allreduce           97                     12.
 MP_Alltoall           462                  12962.
 MP_ISend               56                     60.
 MP_IRecv               56                     60.
 -------------------------------------------------------------------------------

 -------------------------------------------------------------------------------
 -                                                                             -
 -                                GRID STATISTICS                              -
 -                                                                             -
 -------------------------------------------------------------------------------
 LP    KERNEL             BACKEND                              COUNT     PERCENT
 4     collocate ortho    CPU                                   1110      25.67%
 4     integrate ortho    CPU                                   1036      23.96%
 5     collocate ortho    CPU                                    750      17.35%
 5     integrate ortho    CPU                                    700      16.19%
 6     collocate ortho    CPU                                    375       8.67%
 6     integrate ortho    CPU                                    350       8.09%
 0     collocate general  CPU                                      3       0.07%
 -------------------------------------------------------------------------------

 -------------------------------------------------------------------------------
 -                                                                             -
 -                          OFFLOAD MEMPOOL STATISTICS                         -
 -                                                                             -
 -------------------------------------------------------------------------------
 Memory consumption                Number of allocations  Used [MiB]  Size [MiB]
 Device                                                6          56          56
 Host                                                  6          56          56
 -------------------------------------------------------------------------------

 MEMORY| Estimated peak process memory [MiB]                                3038

 -------------------------------------------------------------------------------
 -                                                                             -
 -                         MESSAGE PASSING PERFORMANCE                         -
 -                                                                             -
 -------------------------------------------------------------------------------

 ROUTINE             CALLS      AVE VOLUME [Bytes]
 MP_Group                5
 MP_Bcast               28                    230.
 MP_Allreduce          180                      8.
 MP_Sync                18
 MP_comm_split          14
 -------------------------------------------------------------------------------


 -------------------------------------------------------------------------------
 -                                                                             -
 -                           R E F E R E N C E S                               -
 -                                                                             -
 -------------------------------------------------------------------------------
 
 CP2K version 2026.1 (Development Version), the CP2K developers group (2026).
 CP2K is freely available from https://www.cp2k.org/ .
 
 M. Iannuzzi, J. Wilhelm, F. Stein, A. Bussy, H. Elgabarty, D. Golze, A. Hehn, 
 M. Graml, S. Marek, B. Sertcan Gökmen, C. Schran, H. Forbert, R. Z. 
 Khaliullin, A. Kozhevnikov, M. Taillefumier, R. Meli, V. V. Rybkin, M. Brehm, 
 R. Schade, O. Schütt, J. V. Pototschnig, H. Mirhosseini, A. Knüpfer, D. Marx, 
 M. Krack, J. Hutter, T. D. Kühne.
 J. Phys. Chem. B 130, 1237-1310 (2026).
 The CP2K Program Package Made Simple.
 https://doi.org/10.1021/acs.jpcb.5c05851

 T. D. Kühne, M. Iannuzzi, M. Del Ben, V. V. Rybkin, P. Seewald, F. Stein, T. 
 Laino, R. Z. Khaliullin, O. Schütt, F. Schiffmann, D. Golze, J. Wilhelm, S. 
 Chulkov, M. H. Bani-Hashemian, V. Weber, U. Borstnik, M. Taillefumier, A. S. 
 Jakobovits, A. Lazzaro, H. Pabst, T. Müller, R. Schade, M. Guidon, S. 
 Andermatt, N. Holmberg, G. K. Schenter, A. Hehn, A. Bussy, F. Belleflamme, G. 
 Tabacchi, A. Glöß, M. Lass, I. Bethune, C. J. Mundy, C. Plessl, M. Watkins, 
 J. VandeVondele, M. Krack, J. Hutter.
 J. Chem. Phys. 152, 194103 (2020).
 CP2K: An electronic structure and molecular dynamics software package - 
 Quickstep: Efficient and accurate electronic structure calculations.
 https://doi.org/10.1063/5.0007045

 O. Schuett, P. Messmer, J. Hutter, J. VandeVondele.
 Electronic Structure Calculations on Graphics Processing Units, 173-190 (2016).
 GPU-Accelerated Sparse Matrix-Matrix Multiplication for Linear Scaling Density 
 Functional Theory.
 https://doi.org/10.1002/9781118670712.ch8

 A. Heinecke, G. Henry, M. Hutchinson, H. Pabst.
 Proceedings of Intl. Supercomputing Conference, 981-991 (2016).
 LIBXSMM: Accelerating Small Matrix Multiplications by Runtime Code Generation.
 https://doi.org/10.1109/SC.2016.83

 U. Borstnik, J. VandeVondele, V. Weber, J. Hutter.
 Parallel Comput. 40, 47-58 (2014).
 Sparse matrix multiplication: The distributed block-compressed sparse row 
 library.
 https://doi.org/10.1016/j.parco.2014.03.012

 J. VandeVondele, J. Hutter.
 J. Chem. Phys. 127, 114105 (2007).
 Gaussian basis sets for accurate calculations on molecular systems in gas and 
 condensed phases.
 https://doi.org/10.1063/1.2770708

 J. VandeVondele, M. Krack, F. Mohamed, M. Parrinello, T. Chassaing, J. Hutter.
 Comput. Phys. Commun. 167, 103-128 (2005).
 QUICKSTEP: Fast and accurate density functional calculations using a mixed 
 Gaussian and plane waves approach.
 https://doi.org/10.1016/j.cpc.2004.12.014

 M. Krack.
 Theor. Chem. Acc. 114, 145-152 (2005).
 Pseudopotentials for H to Kr optimized for gradient-corrected 
 exchange-correlation functionals.
 https://doi.org/10.1007/s00214-005-0655-y

 M. Frigo, S. G. Johnson.
 Proc. IEEE 93, 216-231 (2005).
 The design and implementation of FFTW3.
 https://doi.org/10.1109/JPROC.2004.840301

 G. J. Martyna, M. E. Tuckerman.
 J. Chem. Phys. 110, 2810-2821 (1999).
 A reciprocal space based method for treating long range interactions in ab 
 initio and force-field-based calculations in clusters.
 https://doi.org/10.1063/1.477923

 C. Hartwigsen, S. Goedecker, J. Hutter.
 Phys. Rev. B 58, 3641-3662 (1998).
 Relativistic separable dual-space Gaussian pseudopotentials from H to Rn.
 https://doi.org/10.1103/PhysRevB.58.3641

 G. Lippert, J. Hutter, M. Parrinello.
 Mol. Phys. 92, 477-487 (1997).
 A hybrid Gaussian and plane wave density functional scheme.
 https://doi.org/10.1080/002689797170220

 S. Goedecker, M. Teter, J. Hutter.
 Phys. Rev. B 54, 1703-1710 (1996).
 Separable dual-space Gaussian pseudopotentials.
 https://doi.org/10.1103/PhysRevB.54.1703

 J. P. Perdew, K. Burke, M. Ernzerhof.
 Phys. Rev. Lett. 77, 3865-3868 (1996).
 Generalized gradient approximation made simple.
 https://doi.org/10.1103/PhysRevLett.77.3865


 -------------------------------------------------------------------------------
 -                                                                             -
 -                                T I M I N G                                  -
 -                                                                             -
 -------------------------------------------------------------------------------
 SUBROUTINE                       CALLS  ASD         SELF TIME        TOTAL TIME
                                MAXIMUM       AVERAGE  MAXIMUM  AVERAGE  MAXIMUM
 CP2K                                 1  1.0    0.137    0.137   33.169   33.169
 qs_energies                          1  2.0    0.000    0.000   29.356   29.356
 scf_env_do_scf                       1  3.0    0.000    0.000   28.735   28.735
 scf_env_do_scf_inner_loop           14  4.0    0.001    0.001   28.735   28.735
 qs_ks_update_qs_env                 14  5.0    0.000    0.000   24.358   24.358
 rebuild_ks_matrix                   14  6.0    0.000    0.000   24.357   24.357
 qs_ks_build_kohn_sham_matrix        14  7.0    0.001    0.001   24.357   24.357
 fft_wrap_pw1pw2                    245 10.2    0.002    0.002   21.364   21.364
 fft_wrap_pw1pw2_300                157 11.7    2.827    2.827   20.003   20.003
 qs_vxc_create                       14  8.0    0.000    0.000   17.506   17.506
 xc_vxc_pw_create                    14  9.0    0.384    0.384   17.506   17.506
 xc_pw_derive                        84 11.0    0.000    0.000   11.928   11.928
 fft3d_s                            246 12.2   10.259   10.259   10.263   10.263
 xc_pw_divergence                    14 10.0    0.000    0.000    8.583    8.583
 xc_rho_set_and_dset_create          14 10.0    0.403    0.403    8.394    8.394
 qs_rho_update_rho_low               15  5.0    0.000    0.000    4.760    4.760
 calculate_rho_elec                  15  6.0    0.181    0.181    4.760    4.760
 density_rs2pw                       15  7.0    0.000    0.000    4.467    4.467
 pw_gather_s                        118 11.8    4.106    4.106    4.106    4.106
 qs_init_subsys                       1  2.0    0.000    0.000    3.668    3.668
 qs_env_setup                         1  3.0    0.000    0.000    3.666    3.666
 qs_env_rebuild_pw_env                2  3.5    0.000    0.000    3.666    3.666
 pw_env_rebuild                       1  5.0    0.000    0.000    3.666    3.666
 pw_grid_setup                        5  6.0    0.000    0.000    3.665    3.665
 pw_grid_setup_internal               5  7.0    0.036    0.036    3.665    3.665
 pw_scatter_s                       127 12.6    3.539    3.539    3.539    3.539
 pw_grid_sort                         5  8.0    2.758    2.758    3.331    3.331
 xc_functional_eval                  14 11.0    0.000    0.000    2.689    2.689
 pbe_lda_eval                        14 12.0    2.689    2.689    2.689    2.689
 sum_up_and_integrate                14  8.0    0.000    0.000    2.591    2.591
 pw_poisson_solve                    14  8.0    0.000    0.000    2.519    2.519
 integrate_v_rspace                  14  9.0    0.000    0.000    2.497    2.497
 potential_pw2rs                     14 10.0    0.010    0.010    2.380    2.380
 pw_derive                          126 11.3    1.398    1.398    1.398    1.398
 pw_poisson_rebuild                  14  9.0    0.022    0.022    1.116    1.116
 MTin_create_screen_fn                1 10.0    0.044    0.044    1.094    1.094
 fft_wrap_pw1pw2_600                  1 12.0    0.085    0.085    0.788    0.788
 pw_copy                            210 10.5    0.736    0.736    0.736    0.736
 pw_poisson_set                      15  8.8    0.000    0.000    0.711    0.711
 -------------------------------------------------------------------------------

 The number of warnings for this run is : 0
 
 -------------------------------------------------------------------------------
  **** **** ******  **  PROGRAM ENDED AT                 2026-05-30 14:41:56.843
 ***** ** ***  *** **   PROGRAM RAN ON                                spark-c86c
 **    ****   ******    PROGRAM RAN BY                                  kuehne88
 ***** **    ** ** **   PROGRAM PROCESS ID                                136391
  **** **  *******  **  PROGRAM STOPPED IN /home/kuehne88/molecular-skala-final-
                                           20260530-prhead/skala-molopt-bench/ru
                                           ns/H2O_GPW_native_pbe_virial_minus
