&GLOBAL
  PRINT_LEVEL MEDIUM
  PROJECT_NAME c58f96ca83bd02459953a19999635c6eda23fbc4
  RUN_TYPE ENERGY
&END GLOBAL
&FORCE_EVAL
  METHOD Quickstep
  &DFT
    BASIS_SET_FILE_NAME BASIS_MOLOPT_UZH
    POTENTIAL_FILE_NAME POTENTIAL_UZH
    CHARGE 0
    MULTIPLICITY 1
    UKS FALSE
    &MGRID
      CUTOFF 1000
      REL_CUTOFF 60
      NGRIDS 4
    &END MGRID
    &POISSON
      PERIODIC NONE
      POISSON_SOLVER ANALYTIC
    &END POISSON
    &QS
      EPS_DEFAULT 1e-10
    &END QS
    &SCF
      EPS_SCF 1e-05
      MAX_SCF 100
      SCF_GUESS ATOMIC
      &DIAGONALIZATION
      &END DIAGONALIZATION
      &MIXING
        METHOD DIRECT_P_MIXING
        ALPHA 0.4
        NMIXING 2
      &END MIXING
    &END SCF
    &XC
      &XC_FUNCTIONAL
        &GAUXC
          FUNCTIONAL PBE
          MODEL aug-s0-funv2-cpu.fun
          GRID FINE
          PRUNING_SCHEME ROBUST
          RADIAL_QUADRATURE MURAKNOWLES
        &END GAUXC
      &END XC_FUNCTIONAL
    &END XC
    &PRINT
      &MO
        ENERGIES T
        OCCNUMS  T
        &EACH
          QS_SCF 0
        &END
      &END
    &END
  &END DFT
  &SUBSYS
    &CELL
      ABC 40.0000 38.0000 35.0000
      ALPHA_BETA_GAMMA 90.0000 90.0000 90.0000
      PERIODIC NONE
    &END CELL
    &TOPOLOGY
      &CENTER_COORDINATES
      &END
    &END TOPOLOGY
    &COORD
      N       -2.3483500017       -0.8002199999       -0.7818899999
      C       -1.1003700018       -0.3295199985       -0.2459399983
      C       -1.0882400007        1.1846700005       -0.3852699977
      O       -1.7270700003        1.7451100006       -1.2732399990
      C        0.1004699980       -0.9399899996       -1.0039700010
      C        1.4024000009       -0.5195900013       -0.3929399980
      C        1.7953099998       -1.0471199997        0.8426699978
      C        2.1977700017        0.4650999995       -0.9856800014
      C        2.9495499982       -0.5907799998        1.4765799988
      C        3.3559099991        0.9200099986       -0.3585099983
      C        3.7306200010        0.3977299990        0.8785900018
      H       -2.8392099986       -0.1649599991       -1.3921400009
      H       -1.0307099975       -0.6273999994        0.8013900002
      H        0.0390899978       -0.6255500012       -2.0469099982
      H       -0.0214000005       -2.0221499976       -0.9565999991
      H        1.1916599975       -1.8210799987        1.3027300024
      H        1.9004800016        0.8794799985       -1.9415500006
      H        3.2418699977       -1.0096199996        2.4300700023
      H        3.9632299988        1.6791899986       -0.8328199990
      H        4.6278600016        0.7506100016        1.3681299979
      N       -0.3176199990        1.8360199995        0.5144000006
      H        0.2868799995        1.2743399996        1.0924599984
      C       -0.0155700022        3.2444100007        0.3624999997
      H        0.1566399998        3.6874899998        1.3392199991
      H        0.8649399974        3.3992000023       -0.2624600006
      H       -0.8674699989        3.7236699992       -0.1086000015
      C       -2.8124200001       -2.0401100022       -0.4861699998
      O       -2.1986500023       -2.8066699976        0.2506700011
      C       -4.1302500002       -2.4106199986       -1.1207999993
      H       -3.9782699983       -3.2860199985       -1.7479200004
      H       -4.5578099990       -1.6093799991       -1.7180399986
      H       -4.8271999985       -2.6862999996       -0.3332300017
    &END COORD
    &KIND C
      BASIS_SET TZVP-MOLOPT-SCAN-GTH-q4
      POTENTIAL GTH-SCAN-q4
    &END KIND
    &KIND H
      BASIS_SET TZVP-MOLOPT-SCAN-GTH-q1
      POTENTIAL GTH-SCAN-q1
    &END KIND
    &KIND N
      BASIS_SET TZVP-MOLOPT-SCAN-GTH-q5
      POTENTIAL GTH-SCAN-q5
    &END KIND
    &KIND O
      BASIS_SET TZVP-MOLOPT-SCAN-GTH-q6
      POTENTIAL GTH-SCAN-q6
    &END KIND
  &END SUBSYS
&END FORCE_EVAL

================================================================================
=== END OF CP2K INPUT / START OF CP2K OUTPUT ===
================================================================================

 DBCSR| CPU Multiplication driver                                           BLAS (U)
 DBCSR| Multrec recursion limit                                              512 (U)
 DBCSR| Multiplication stack size                                           1000 (D)
 DBCSR| Maximum elements for images                                    UNLIMITED (U)
 DBCSR| Multiplicative factor virtual images                                   1 (U)
 DBCSR| Use multiplication densification                                       T (D)
 DBCSR| Multiplication size stacks                                             3 (U)
 DBCSR| Use memory pool for CPU allocation                                     F (U)
 DBCSR| Number of 3D layers                                               SINGLE (U)
 DBCSR| Use MPI memory allocation                                              F (U)
 DBCSR| Use RMA algorithm                                                      F (U)
 DBCSR| Use Communication thread                                               T (U)
 DBCSR| Communication thread load                                             87 (D)
 DBCSR| MPI: My process id                                                     0
 DBCSR| MPI: Number of processes                                              16
 DBCSR| OMP: Current number of threads                                         1
 DBCSR| OMP: Max number of threads                                             1
 DBCSR| Split modifier for TAS multiplication algorithm                  1.0E+00 (U)


  **** **** ******  **  PROGRAM STARTED AT               2026-08-13 13:05:04.280
 ***** ** ***  *** **   PROGRAM STARTED ON        eb3791e2ef3243b6944400b65b9622
 **    ****   ******    PROGRAM STARTED BY                             <unknown>
 ***** **    ** ** **   PROGRAM PROCESS ID                                  1639
  **** **  *******  **  PROGRAM STARTED IN                    /tmp/cp2k_qwunoy4_

 CP2K| version string:                                       CP2K version 2026.2
 CP2K| source code revision number:                                  git:c92cc08
 CP2K| cp2kflags: omp libint fftw3 libxc gauxc gauxc_mpi gauxc_onedft gauxc_host
 CP2K|             parallel scalapack mpi_f08 spglib sirius libtorch hdf5
 CP2K| is freely available from                            https://www.cp2k.org/
 CP2K| Program compiled at                                   2026-08-13 02:05:42
 CP2K| Program compiled on                                                      
 CP2K| Program compiled for                                               x86_64
 CP2K| Data directory path                             /opt/cp2k/share/cp2k/data
 CP2K| Input file name                                            cp2k_input.inp

 GLOBAL| Force Environment number                                              1
 GLOBAL| Basis set file name                                    BASIS_MOLOPT_UZH
 GLOBAL| Potential file name                                       POTENTIAL_UZH
 GLOBAL| MM Potential file name                                     MM_POTENTIAL
 GLOBAL| Coordinate file name                                      __STD_INPUT__
 GLOBAL| Method name                                                        CP2K
 GLOBAL| Project name                   c58f96ca83bd02459953a19999635c6eda23fbc4
 GLOBAL| Run type                                                         ENERGY
 GLOBAL| FFT library                                                       FFTW3
 GLOBAL| Diagonalization library                                       ScaLAPACK
 GLOBAL| Cholesky decomposition library                                ScaLAPACK
 GLOBAL| DGEMM library                                                      BLAS
 GLOBAL| Direct generalized diagonalization requested                          F
 GLOBAL| Orthonormality check for eigenvectors                          DISABLED
 GLOBAL| Matrix multiplication library                                 ScaLAPACK
 GLOBAL| All-to-all communication in single precision                          F
 GLOBAL| FFTs using library dependent lengths                                  F
 GLOBAL| Grid backend                                                       AUTO
 GLOBAL| Global print level                                               MEDIUM
 GLOBAL| MPI I/O enabled                                                       T
 GLOBAL| Total number of message passing processes                            16
 GLOBAL| Number of distributed systems (nodes)                                 1
 GLOBAL| Number of threads for this process                                    1
 GLOBAL| This output is from process                                           0
 GLOBAL| OpenMP stack size per thread (OMP_STACKSIZE)                        16M
 GLOBAL| CPU model name                          AMD EPYC 9V74 80-Core Processor
 GLOBAL| CPUID                                                              1002

 MEMORY| system memory details [Kb]
 MEMORY|                        rank 0           min           max       average
 MEMORY| MemTotal            263924012     263924012     263924012     263924012
 MEMORY| MemFree             236457964     236457964     236457964     236457964
 MEMORY| Buffers                406160        406160        406160        406160
 MEMORY| Cached               19201264      19201264      19201264      19201264
 MEMORY| Slab                  1585796       1585796       1585796       1585796
 MEMORY| SReclaimable          1236380       1236380       1236380       1236380
 MEMORY| MemLikelyFree       257301768     257301768     257301768     257301768


 *** Fundamental physical constants (SI units) ***

 *** Literature: B. J. Mohr and B. N. Taylor,
 ***             CODATA recommended values of the fundamental physical
 ***             constants: 2006, Web Version 5.1
 ***             http://physics.nist.gov/constants

 Speed of light in vacuum [m/s]                             2.99792458000000E+08
 Magnetic constant or permeability of vacuum [N/A**2]       1.25663706143592E-06
 Electric constant or permittivity of vacuum [F/m]          8.85418781762039E-12
 Planck constant (h) [J*s]                                  6.62606896000000E-34
 Planck constant (h-bar) [J*s]                              1.05457162825177E-34
 Elementary charge [C]                                      1.60217648700000E-19
 Electron mass [kg]                                         9.10938215000000E-31
 Electron g factor [ ]                                     -2.00231930436220E+00
 Proton mass [kg]                                           1.67262163700000E-27
 Fine-structure constant                                    7.29735253760000E-03
 Rydberg constant [1/m]                                     1.09737315685270E+07
 Avogadro constant [1/mol]                                  6.02214179000000E+23
 Boltzmann constant [J/K]                                   1.38065040000000E-23
 Atomic mass unit [kg]                                      1.66053878200000E-27
 Bohr radius [m]                                            5.29177208590000E-11

 *** Conversion factors ***

 [u] -> [a.u.]                                              1.82288848426455E+03
 [Angstrom] -> [Bohr] = [a.u.]                              1.88972613288564E+00
 [a.u.] = [Bohr] -> [Angstrom]                              5.29177208590000E-01
 [a.u.] -> [s]                                              2.41888432650478E-17
 [a.u.] -> [fs]                                             2.41888432650478E-02
 [a.u.] -> [J]                                              4.35974393937059E-18
 [a.u.] -> [N]                                              8.23872205491840E-08
 [a.u.] -> [K]                                              3.15774647902944E+05
 [a.u.] -> [kJ/mol]                                         2.62549961709828E+03
 [a.u.] -> [kcal/mol]                                       6.27509468713739E+02
 [a.u.] -> [Pa]                                             2.94210107994716E+13
 [a.u.] -> [bar]                                            2.94210107994716E+08
 [a.u.] -> [atm]                                            2.90362800883016E+08
 [a.u.] -> [eV]                                             2.72113838565563E+01
 [a.u.] -> [Hz]                                             6.57968392072181E+15
 [a.u.] -> [1/cm] (wave numbers)                            2.19474631370540E+05
 [a.u./Bohr**2] -> [1/cm]                                   5.14048714338585E+03
 

 CELL| Volume [angstrom^3]:                                         53200.000000
 CELL| Vector a [angstrom]:      40.000     0.000     0.000   |a| =    40.000000
 CELL| Vector b [angstrom]:       0.000    38.000     0.000   |b| =    38.000000
 CELL| Vector c [angstrom]:       0.000     0.000    35.000   |c| =    35.000000
 CELL| Angle (b,c), alpha [degree]:                                    90.000000
 CELL| Angle (a,c), beta  [degree]:                                    90.000000
 CELL| Angle (a,b), gamma [degree]:                                    90.000000
 CELL| Numerically orthorhombic:                                             YES
 CELL| Periodicity                                                          NONE

 CELL_REF| Volume [angstrom^3]:                                     53200.000000
 CELL_REF| Vector a [angstrom    40.000     0.000     0.000   |a| =    40.000000
 CELL_REF| Vector b [angstrom     0.000    38.000     0.000   |b| =    38.000000
 CELL_REF| Vector c [angstrom     0.000     0.000    35.000   |c| =    35.000000
 CELL_REF| Angle (b,c), alpha [degree]:                                90.000000
 CELL_REF| Angle (a,c), beta  [degree]:                                90.000000
 CELL_REF| Angle (a,b), gamma [degree]:                                90.000000
 CELL_REF| Numerically orthorhombic:                                         YES
 CELL_REF| Periodicity                                                      NONE

 GENERATE|  Preliminary Number of Bonds generated:                             0
 GENERATE|  Achieved consistency in connectivity generation.

 *******************************************************************************
 *******************************************************************************
 **                                                                           **
 **     #####                         ##              ##                      **
 **    ##   ##            ##          ##              ##                      **
 **   ##     ##                       ##            ######                    **
 **   ##     ##  ##   ##  ##   #####  ##  ##   ####   ##    #####    #####    **
 **   ##     ##  ##   ##  ##  ##      ## ##   ##      ##   ##   ##  ##   ##   **
 **   ##  ## ##  ##   ##  ##  ##      ####     ###    ##   ######   ######    **
 **    ##  ###   ##   ##  ##  ##      ## ##      ##   ##   ##       ##        **
 **     #######   #####   ##   #####  ##  ##  ####    ##    #####   ##        **
 **           ##                                                    ##        **
 **                                                                           **
 **                                                ... make the atoms dance   **
 **                                                                           **
 **            Copyright (C) by CP2K developers group (2000-2026)             **
 **                      J. Chem. Phys. 152, 194103 (2020)                    **
 **                                                                           **
 *******************************************************************************

 DFT| Spin restricted Kohn-Sham (RKS) calculation                            RKS
 DFT| Multiplicity                                                             1
 DFT| Number of spin states                                                    1
 DFT| Charge                                                                   0
 DFT| Self-interaction correction (SIC)                                       NO
 DFT| Cutoffs: density                                              1.000000E-10
 DFT|          gradient                                             1.000000E-10
 DFT|          tau                                                  1.000000E-10
 DFT|          cutoff_smoothing_range                               0.000000E+00
 DFT| XC density smoothing                                                  NONE
 DFT| XC derivatives                                                          PW

 FUNCTIONAL| GAUXC:
 FUNCTIONAL| Functional computed by GauXC Skala model aug-s0-funv2-cpu.fun      


 QS| Method:                                                                 GPW
 QS| Density plane wave grid type                        NON-SPHERICAL FULLSPACE
 QS| Number of grid levels:                                                    4
 QS| Density cutoff [a.u.]:                                                500.0
 QS| Multi grid cutoff [a.u.]: 1) grid level                               500.0
 QS|                           2) grid level                               166.7
 QS|                           3) grid level                                55.6
 QS|                           4) grid level                                18.5
 QS| Grid level progression factor:                                          3.0
 QS| Relative density cutoff [a.u.]:                                        30.0
 QS| Interaction thresholds: eps_pgf_orb:                                1.0E-05
 QS|                         eps_filter_matrix:                          0.0E+00
 QS|                         eps_core_charge:                            1.0E-12
 QS|                         eps_rho_gspace:                             1.0E-10
 QS|                         eps_rho_rspace:                             1.0E-10
 QS|                         eps_gvg_rspace:                             1.0E-05
 QS|                         eps_ppl:                                    1.0E-02
 QS|                         eps_ppnl:                                   1.0E-07


 ATOMIC KIND INFORMATION

  1. Atomic kind: N                                     Number of atoms:       2

     Orbital Basis Set                                   TZVP-MOLOPT-SCAN-GTH-q5

       Number of orbital shell sets:                                           1
       Number of orbital shells:                                               7
       Number of primitive Cartesian functions:                                5
       Number of Cartesian basis functions:                                   18
       Number of spherical basis functions:                                   17
       Norm type:                                                              2

       Normalised Cartesian orbitals:

                        Set   Shell   Orbital            Exponent    Coefficient

                          1       1    2s                7.741240      -0.372569
                                                         2.739304      -0.219396
                                                         1.077565       0.278149
                                                         0.425476       0.232020
                                                         0.142415       0.034612

                          1       2    3s                7.741240       0.271946
                                                         2.739304       0.236866
                                                         1.077565      -0.248170
                                                         0.425476      -0.061031
                                                         0.142415       0.200154

                          1       3    4s                7.741240      -1.413950
                                                         2.739304      -2.318830
                                                         1.077565       1.978599
                                                         0.425476      -0.833623
                                                         0.142415       0.105972

                          1       4    3px               7.741240      -1.168229
                                                         2.739304      -0.942518
                                                         1.077565      -0.541668
                                                         0.425476      -0.212751
                                                         0.142415      -0.025014
                          1       4    3py               7.741240      -1.168229
                                                         2.739304      -0.942518
                                                         1.077565      -0.541668
                                                         0.425476      -0.212751
                                                         0.142415      -0.025014
                          1       4    3pz               7.741240      -1.168229
                                                         2.739304      -0.942518
                                                         1.077565      -0.541668
                                                         0.425476      -0.212751
                                                         0.142415      -0.025014

                          1       5    4px               7.741240       0.928701
                                                         2.739304       0.844788
                                                         1.077565       0.526172
                                                         0.425476       0.069589
                                                         0.142415      -0.132325
                          1       5    4py               7.741240       0.928701
                                                         2.739304       0.844788
                                                         1.077565       0.526172
                                                         0.425476       0.069589
                                                         0.142415      -0.132325
                          1       5    4pz               7.741240       0.928701
                                                         2.739304       0.844788
                                                         1.077565       0.526172
                                                         0.425476       0.069589
                                                         0.142415      -0.132325

                          1       6    5px               7.741240       1.578027
                                                         2.739304       2.303105
                                                         1.077565       1.543896
                                                         0.425476      -0.542746
                                                         0.142415       0.030053
                          1       6    5py               7.741240       1.578027
                                                         2.739304       2.303105
                                                         1.077565       1.543896
                                                         0.425476      -0.542746
                                                         0.142415       0.030053
                          1       6    5pz               7.741240       1.578027
                                                         2.739304       2.303105
                                                         1.077565       1.543896
                                                         0.425476      -0.542746
                                                         0.142415       0.030053

                          1       7    4dx2              7.741240      -0.128620
                                                         2.739304       0.958133
                                                         1.077565       0.733739
                                                         0.425476       0.247613
                                                         0.142415      -0.003923
                          1       7    4dxy              7.741240      -0.222777
                                                         2.739304       1.659536
                                                         1.077565       1.270873
                                                         0.425476       0.428878
                                                         0.142415      -0.006794
                          1       7    4dxz              7.741240      -0.222777
                                                         2.739304       1.659536
                                                         1.077565       1.270873
                                                         0.425476       0.428878
                                                         0.142415      -0.006794
                          1       7    4dy2              7.741240      -0.128620
                                                         2.739304       0.958133
                                                         1.077565       0.733739
                                                         0.425476       0.247613
                                                         0.142415      -0.003923
                          1       7    4dyz              7.741240      -0.222777
                                                         2.739304       1.659536
                                                         1.077565       1.270873
                                                         0.425476       0.428878
                                                         0.142415      -0.006794
                          1       7    4dz2              7.741240      -0.128620
                                                         2.739304       0.958133
                                                         1.077565       0.733739
                                                         0.425476       0.247613
                                                         0.142415      -0.003923

       Atomic covalent radius [Angstrom]:                                  0.750

       Atomic van der Waals radius [Angstrom]:                             1.550

     GTH Potential information for                                   GTH-SCAN-q5

       Description:                       Goedecker-Teter-Hutter pseudopotential
                                           Goedecker et al., PRB 54, 1703 (1996)
                                          Hartwigsen et al., PRB 58, 3641 (1998)
                                                      Krack, TCA 114, 145 (2005)

       Gaussian exponent of the core charge distribution:               6.165682
       Electronic configuration (s p d ...):                       2   3   0   0

       Parameters of the local part of the GTH pseudopotential:

                          rloc        C1          C2          C3          C4
                        0.284770  -12.418435    1.850749

       Parameters of the non-local part of the GTH pseudopotential:

                   l      r(l)      h(i,j,l)

                   0    0.256275   13.645095

  2. Atomic kind: C                                     Number of atoms:      12

     Orbital Basis Set                                   TZVP-MOLOPT-SCAN-GTH-q4

       Number of orbital shell sets:                                           1
       Number of orbital shells:                                               7
       Number of primitive Cartesian functions:                                5
       Number of Cartesian basis functions:                                   18
       Number of spherical basis functions:                                   17
       Norm type:                                                              2

       Normalised Cartesian orbitals:

                        Set   Shell   Orbital            Exponent    Coefficient

                          1       1    2s                5.623460      -0.349209
                                                         2.098559      -0.253875
                                                         0.820511       0.248209
                                                         0.317331       0.216287
                                                         0.111116       0.012850

                          1       2    3s                5.623460       0.160090
                                                         2.098559       0.144150
                                                         0.820511      -0.103023
                                                         0.317331       0.001075
                                                         0.111116       0.142208

                          1       3    4s                5.623460      -1.207693
                                                         2.098559      -1.266789
                                                         0.820511       0.734368
                                                         0.317331      -0.329587
                                                         0.111116       0.046451

                          1       4    3px               5.623460      -0.717953
                                                         2.098559      -0.559659
                                                         0.820511      -0.405261
                                                         0.317331      -0.145150
                                                         0.111116      -0.020126
                          1       4    3py               5.623460      -0.717953
                                                         2.098559      -0.559659
                                                         0.820511      -0.405261
                                                         0.317331      -0.145150
                                                         0.111116      -0.020126
                          1       4    3pz               5.623460      -0.717953
                                                         2.098559      -0.559659
                                                         0.820511      -0.405261
                                                         0.317331      -0.145150
                                                         0.111116      -0.020126

                          1       5    4px               5.623460       0.831730
                                                         2.098559       0.877901
                                                         0.820511       0.415963
                                                         0.317331       0.032156
                                                         0.111116      -0.090730
                          1       5    4py               5.623460       0.831730
                                                         2.098559       0.877901
                                                         0.820511       0.415963
                                                         0.317331       0.032156
                                                         0.111116      -0.090730
                          1       5    4pz               5.623460       0.831730
                                                         2.098559       0.877901
                                                         0.820511       0.415963
                                                         0.317331       0.032156
                                                         0.111116      -0.090730

                          1       6    5px               5.623460       1.619151
                                                         2.098559       2.412091
                                                         0.820511       0.659876
                                                         0.317331      -0.314050
                                                         0.111116       0.028213
                          1       6    5py               5.623460       1.619151
                                                         2.098559       2.412091
                                                         0.820511       0.659876
                                                         0.317331      -0.314050
                                                         0.111116       0.028213
                          1       6    5pz               5.623460       1.619151
                                                         2.098559       2.412091
                                                         0.820511       0.659876
                                                         0.317331      -0.314050
                                                         0.111116       0.028213

                          1       7    4dx2              5.623460      -2.005729
                                                         2.098559       1.064556
                                                         0.820511       0.464044
                                                         0.317331       0.120863
                                                         0.111116       0.003311
                          1       7    4dxy              5.623460      -3.474025
                                                         2.098559       1.843865
                                                         0.820511       0.803748
                                                         0.317331       0.209340
                                                         0.111116       0.005735
                          1       7    4dxz              5.623460      -3.474025
                                                         2.098559       1.843865
                                                         0.820511       0.803748
                                                         0.317331       0.209340
                                                         0.111116       0.005735
                          1       7    4dy2              5.623460      -2.005729
                                                         2.098559       1.064556
                                                         0.820511       0.464044
                                                         0.317331       0.120863
                                                         0.111116       0.003311
                          1       7    4dyz              5.623460      -3.474025
                                                         2.098559       1.843865
                                                         0.820511       0.803748
                                                         0.317331       0.209340
                                                         0.111116       0.005735
                          1       7    4dz2              5.623460      -2.005729
                                                         2.098559       1.064556
                                                         0.820511       0.464044
                                                         0.317331       0.120863
                                                         0.111116       0.003311

       Atomic covalent radius [Angstrom]:                                  0.770

       Atomic van der Waals radius [Angstrom]:                             1.700

     GTH Potential information for                                   GTH-SCAN-q4

       Description:                       Goedecker-Teter-Hutter pseudopotential
                                           Goedecker et al., PRB 54, 1703 (1996)
                                          Hartwigsen et al., PRB 58, 3641 (1998)
                                                      Krack, TCA 114, 145 (2005)

       Gaussian exponent of the core charge distribution:               4.454624
       Electronic configuration (s p d ...):                       2   2   0   0

       Parameters of the local part of the GTH pseudopotential:

                          rloc        C1          C2          C3          C4
                        0.335027   -8.822616    1.299117

       Parameters of the non-local part of the GTH pseudopotential:

                   l      r(l)      h(i,j,l)

                   0    0.303798    9.625763

  3. Atomic kind: O                                     Number of atoms:       2

     Orbital Basis Set                                   TZVP-MOLOPT-SCAN-GTH-q6

       Number of orbital shell sets:                                           1
       Number of orbital shells:                                               7
       Number of primitive Cartesian functions:                                5
       Number of Cartesian basis functions:                                   18
       Number of spherical basis functions:                                   17
       Norm type:                                                              2

       Normalised Cartesian orbitals:

                        Set   Shell   Orbital            Exponent    Coefficient

                          1       1    2s               10.257817      -0.419073
                                                         3.644287      -0.215759
                                                         1.402225       0.311285
                                                         0.522057       0.263821
                                                         0.168189       0.045116

                          1       2    3s               10.257817       0.362459
                                                         3.644287       0.180656
                                                         1.402225      -0.203664
                                                         0.522057      -0.159611
                                                         0.168189       0.244682

                          1       3    4s               10.257817      -2.413417
                                                         3.644287      -0.850901
                                                         1.402225       0.170654
                                                         0.522057      -0.131214
                                                         0.168189       0.003984

                          1       4    3px              10.257817      -1.672017
                                                         3.644287      -1.345385
                                                         1.402225      -0.751048
                                                         0.522057      -0.276645
                                                         0.168189      -0.033014
                          1       4    3py              10.257817      -1.672017
                                                         3.644287      -1.345385
                                                         1.402225      -0.751048
                                                         0.522057      -0.276645
                                                         0.168189      -0.033014
                          1       4    3pz              10.257817      -1.672017
                                                         3.644287      -1.345385
                                                         1.402225      -0.751048
                                                         0.522057      -0.276645
                                                         0.168189      -0.033014

                          1       5    4px              10.257817       1.559903
                                                         3.644287       0.989060
                                                         1.402225       0.672543
                                                         0.522057       0.141420
                                                         0.168189      -0.167208
                          1       5    4py              10.257817       1.559903
                                                         3.644287       0.989060
                                                         1.402225       0.672543
                                                         0.522057       0.141420
                                                         0.168189      -0.167208
                          1       5    4pz              10.257817       1.559903
                                                         3.644287       0.989060
                                                         1.402225       0.672543
                                                         0.522057       0.141420
                                                         0.168189      -0.167208

                          1       6    5px              10.257817       5.420840
                                                         3.644287       0.742781
                                                         1.402225       2.786765
                                                         0.522057      -0.733751
                                                         0.168189       0.023040
                          1       6    5py              10.257817       5.420840
                                                         3.644287       0.742781
                                                         1.402225       2.786765
                                                         0.522057      -0.733751
                                                         0.168189       0.023040
                          1       6    5pz              10.257817       5.420840
                                                         3.644287       0.742781
                                                         1.402225       2.786765
                                                         0.522057      -0.733751
                                                         0.168189       0.023040

                          1       7    4dx2             10.257817      -1.249026
                                                         3.644287       1.475740
                                                         1.402225       0.993741
                                                         0.522057       0.395456
                                                         0.168189      -0.006736
                          1       7    4dxy             10.257817      -2.163376
                                                         3.644287       2.556057
                                                         1.402225       1.721210
                                                         0.522057       0.684950
                                                         0.168189      -0.011667
                          1       7    4dxz             10.257817      -2.163376
                                                         3.644287       2.556057
                                                         1.402225       1.721210
                                                         0.522057       0.684950
                                                         0.168189      -0.011667
                          1       7    4dy2             10.257817      -1.249026
                                                         3.644287       1.475740
                                                         1.402225       0.993741
                                                         0.522057       0.395456
                                                         0.168189      -0.006736
                          1       7    4dyz             10.257817      -2.163376
                                                         3.644287       2.556057
                                                         1.402225       1.721210
                                                         0.522057       0.684950
                                                         0.168189      -0.011667
                          1       7    4dz2             10.257817      -1.249026
                                                         3.644287       1.475740
                                                         1.402225       0.993741
                                                         0.522057       0.395456
                                                         0.168189      -0.006736

       Atomic covalent radius [Angstrom]:                                  0.730

       Atomic van der Waals radius [Angstrom]:                             1.520

     GTH Potential information for                                   GTH-SCAN-q6

       Description:                       Goedecker-Teter-Hutter pseudopotential
                                           Goedecker et al., PRB 54, 1703 (1996)
                                          Hartwigsen et al., PRB 58, 3641 (1998)
                                                      Krack, TCA 114, 145 (2005)

       Gaussian exponent of the core charge distribution:               8.656553
       Electronic configuration (s p d ...):                       2   4   0   0

       Parameters of the local part of the GTH pseudopotential:

                          rloc        C1          C2          C3          C4
                        0.240333  -16.794986    2.452457

       Parameters of the non-local part of the GTH pseudopotential:

                   l      r(l)      h(i,j,l)

                   0    0.221500   18.441562

  4. Atomic kind: H                                     Number of atoms:      16

     Orbital Basis Set                                   TZVP-MOLOPT-SCAN-GTH-q1

       Number of orbital shell sets:                                           1
       Number of orbital shells:                                               4
       Number of primitive Cartesian functions:                                5
       Number of Cartesian basis functions:                                    6
       Number of spherical basis functions:                                    6
       Norm type:                                                              2

       Normalised Cartesian orbitals:

                        Set   Shell   Orbital            Exponent    Coefficient

                          1       1    2s                9.168765       0.095357
                                                         2.161194       0.125778
                                                         0.619868       0.162183
                                                         0.161316       0.074849
                                                         0.412255       0.090962

                          1       2    3s                9.168765      -0.435739
                                                         2.161194      -0.868971
                                                         0.619868      -0.406683
                                                         0.161316      -0.142964
                                                         0.412255       0.978336

                          1       3    4s                9.168765       0.385896
                                                         2.161194       1.113624
                                                         0.619868       0.043366
                                                         0.161316      -0.067676
                                                         0.412255       0.053421

                          1       4    3px               9.168765      -1.788640
                                                         2.161194       0.906920
                                                         0.619868       0.273605
                                                         0.161316       0.091389
                                                         0.412255       0.008094
                          1       4    3py               9.168765      -1.788640
                                                         2.161194       0.906920
                                                         0.619868       0.273605
                                                         0.161316       0.091389
                                                         0.412255       0.008094
                          1       4    3pz               9.168765      -1.788640
                                                         2.161194       0.906920
                                                         0.619868       0.273605
                                                         0.161316       0.091389
                                                         0.412255       0.008094

       Atomic covalent radius [Angstrom]:                                  0.320

       Atomic van der Waals radius [Angstrom]:                             1.090

     GTH Potential information for                                   GTH-SCAN-q1

       Description:                       Goedecker-Teter-Hutter pseudopotential
                                           Goedecker et al., PRB 54, 1703 (1996)
                                          Hartwigsen et al., PRB 58, 3641 (1998)
                                                      Krack, TCA 114, 145 (2005)

       Gaussian exponent of the core charge distribution:              12.429142
       Electronic configuration (s p d ...):                       1   0   0   0

       Parameters of the local part of the GTH pseudopotential:

                          rloc        C1          C2          C3          C4
                        0.200569   -4.177243    0.723816


 MOLECULE KIND INFORMATION


 All atoms are their own molecule, skipping detailed information


 TOTAL NUMBERS AND MAXIMUM NUMBERS

  Total number of            - Atomic kinds:                                   4
                             - Atoms:                                         32
                             - Shell sets:                                    32
                             - Shells:                                       176
                             - Primitive Cartesian functions:                160
                             - Cartesian basis functions:                    384
                             - Spherical basis functions:                    368

  Maximum angular momentum of- Orbital basis functions:                        2
                             - Local part of the GTH pseudopotential:          2
                             - Non-local part of the GTH pseudopotential:      0


 MODULE QUICKSTEP: ATOMIC COORDINATES IN ANGSTROM

   Atom Kind Element         X             Y             Z       Z(eff)     Mass
      1    1 N     7     17.751320     17.980955     16.526530   5.0000  14.0067
      2    2 C     6     18.999300     18.451655     17.062480   4.0000  12.0107
      3    2 C     6     19.011430     19.965845     16.923150   4.0000  12.0107
      4    3 O     8     18.372600     20.526285     16.035180   6.0000  15.9994
      5    2 C     6     20.200140     17.841185     16.304450   4.0000  12.0107
      6    2 C     6     21.502070     18.261585     16.915480   4.0000  12.0107
      7    2 C     6     21.894980     17.734055     18.151090   4.0000  12.0107
      8    2 C     6     22.297440     19.246275     16.322740   4.0000  12.0107
      9    2 C     6     23.049220     18.190395     18.785000   4.0000  12.0107
     10    2 C     6     23.455580     19.701185     16.949910   4.0000  12.0107
     11    2 C     6     23.830290     19.178905     18.187010   4.0000  12.0107
     12    4 H     1     17.260460     18.616215     15.916280   1.0000   1.0079
     13    4 H     1     19.068960     18.153775     18.109810   1.0000   1.0079
     14    4 H     1     20.138760     18.155625     15.261510   1.0000   1.0079
     15    4 H     1     20.078270     16.759025     16.351820   1.0000   1.0079
     16    4 H     1     21.291330     16.960095     18.611150   1.0000   1.0079
     17    4 H     1     22.000150     19.660655     15.366870   1.0000   1.0079
     18    4 H     1     23.341540     17.771555     19.738490   1.0000   1.0079
     19    4 H     1     24.062900     20.460365     16.475600   1.0000   1.0079
     20    4 H     1     24.727530     19.531785     18.676550   1.0000   1.0079
     21    1 N     7     19.782050     20.617195     17.822820   5.0000  14.0067
     22    4 H     1     20.386550     20.055515     18.400880   1.0000   1.0079
     23    2 C     6     20.084100     22.025585     17.670920   4.0000  12.0107
     24    4 H     1     20.256310     22.468665     18.647640   1.0000   1.0079
     25    4 H     1     20.964610     22.180375     17.045960   1.0000   1.0079
     26    4 H     1     19.232200     22.504845     17.199820   1.0000   1.0079
     27    2 C     6     17.287250     16.741065     16.822250   4.0000  12.0107
     28    3 O     8     17.901020     15.974505     17.559090   6.0000  15.9994
     29    2 C     6     15.969420     16.370555     16.187620   4.0000  12.0107
     30    4 H     1     16.121400     15.495155     15.560500   1.0000   1.0079
     31    4 H     1     15.541860     17.171795     15.590380   1.0000   1.0079
     32    4 H     1     15.272470     16.094875     16.975190   1.0000   1.0079



 SCF PARAMETERS         Density guess:                                    ATOMIC
                        --------------------------------------------------------
                        max_scf:                                             100
                        max_scf_history:                                       0
                        max_diis:                                              4
                        --------------------------------------------------------
                        eps_scf:                                        1.00E-05
                        eps_scf_history:                                0.00E+00
                        eps_diis:                                       1.00E-01
                        eps_eigval:                                     1.00E-05
                        --------------------------------------------------------
                        level_shift [a.u.]:                             0.000000
                        --------------------------------------------------------
                        Mixing method:                           DIRECT_P_MIXING
                        --------------------------------------------------------
                        No outer SCF

 PW_GRID| Information for grid number                                          1
 PW_GRID| Grid distributed over                                    16 processors
 PW_GRID| Real space group dimensions                                    16    1
 PW_GRID| the grid is blocked:                                                NO
 PW_GRID| Cutoff [a.u.]                                                    500.0
 PW_GRID| spherical cutoff:                                                   NO
 PW_GRID|   Bounds   1           -384     383                Points:         768
 PW_GRID|   Bounds   2           -364     364                Points:         729
 PW_GRID|   Bounds   3           -337     337                Points:         675
 PW_GRID| Volume element (a.u.^3)  0.9500E-03     Volume (a.u.^3)    359011.3998
 PW_GRID| Grid span                                                    FULLSPACE
 PW_GRID|   Distribution                         Average         Max         Min
 PW_GRID|   G-Vectors                         23619600.0    23619840    23619072
 PW_GRID|   G-Rays                               30754.7       30755       30754
 PW_GRID|   Real Space Points                 23619600.0    23619600    23619600

 PW_GRID| Information for grid number                                          2
 PW_GRID| Number of the reference grid                                         1
 PW_GRID| Grid distributed over                                    16 processors
 PW_GRID| Real space group dimensions                                    16    1
 PW_GRID| the grid is blocked:                                                NO
 PW_GRID| Cutoff [a.u.]                                                    166.7
 PW_GRID| spherical cutoff:                                                   NO
 PW_GRID|   Bounds   1           -225     224                Points:         450
 PW_GRID|   Bounds   2           -216     215                Points:         432
 PW_GRID|   Bounds   3           -200     199                Points:         400
 PW_GRID| Volume element (a.u.^3)  0.4617E-02     Volume (a.u.^3)    359011.3998
 PW_GRID| Grid span                                                    FULLSPACE
 PW_GRID|   Distribution                         Average         Max         Min
 PW_GRID|   G-Vectors                          4860000.0     4860900     4859100
 PW_GRID|   G-Rays                               10800.0       10802       10798
 PW_GRID|   Real Space Points                  4860000.0     5011200     4838400

 PW_GRID| Information for grid number                                          3
 PW_GRID| Number of the reference grid                                         1
 PW_GRID| Grid distributed over                                    16 processors
 PW_GRID| Real space group dimensions                                    16    1
 PW_GRID| the grid is blocked:                                                NO
 PW_GRID| Cutoff [a.u.]                                                     55.6
 PW_GRID| spherical cutoff:                                                   NO
 PW_GRID|   Bounds   1           -128     127                Points:         256
 PW_GRID|   Bounds   2           -121     121                Points:         243
 PW_GRID|   Bounds   3           -112     112                Points:         225
 PW_GRID| Volume element (a.u.^3)  0.2565E-01     Volume (a.u.^3)    359011.3998
 PW_GRID| Grid span                                                    FULLSPACE
 PW_GRID|   Distribution                         Average         Max         Min
 PW_GRID|   G-Vectors                           874800.0      875520      874496
 PW_GRID|   G-Rays                                3417.2        3420        3416
 PW_GRID|   Real Space Points                   874800.0      874800      874800

 PW_GRID| Information for grid number                                          4
 PW_GRID| Number of the reference grid                                         1
 PW_GRID| Grid distributed over                                    16 processors
 PW_GRID| Real space group dimensions                                    16    1
 PW_GRID| the grid is blocked:                                                NO
 PW_GRID| Cutoff [a.u.]                                                     18.5
 PW_GRID| spherical cutoff:                                                   NO
 PW_GRID|   Bounds   1            -75      74                Points:         150
 PW_GRID|   Bounds   2            -72      71                Points:         144
 PW_GRID|   Bounds   3            -67      67                Points:         135
 PW_GRID| Volume element (a.u.^3)  0.1231         Volume (a.u.^3)    359011.3998
 PW_GRID| Grid span                                                    FULLSPACE
 PW_GRID|   Distribution                         Average         Max         Min
 PW_GRID|   G-Vectors                           182250.0      182850      181800
 PW_GRID|   G-Rays                                1215.0        1219        1212
 PW_GRID|   Real Space Points                   182250.0      194400      174960

 POISSON| Solver                                                        ANALYTIC
 POISSON| Periodicity                                                       NONE

 RS_GRID| Information for grid number                                          1
 RS_GRID|   Bounds   1           -384     383                Points:         768
 RS_GRID|   Bounds   2           -364     364                Points:         729
 RS_GRID|   Bounds   3           -337     337                Points:         675
 RS_GRID| Real space distribution over                                  4 groups
 RS_GRID| Real space distribution along direction                              1
 RS_GRID| Border size                                                         26
 RS_GRID| Real space distribution over                                  4 groups
 RS_GRID| Real space distribution along direction                              2
 RS_GRID| Border size                                                         26
 RS_GRID|   Distribution                         Average         Max         Min
 RS_GRID|   Planes                                 244.0         244         244
 RS_GRID|   Distribution                         Average         Max         Min
 RS_GRID|   Planes                                 234.2         235         234

 RS_GRID| Information for grid number                                          2
 RS_GRID|   Bounds   1           -225     224                Points:         450
 RS_GRID|   Bounds   2           -216     215                Points:         432
 RS_GRID|   Bounds   3           -200     199                Points:         400
 RS_GRID| Real space distribution over                                  4 groups
 RS_GRID| Real space distribution along direction                              1
 RS_GRID| Border size                                                         26
 RS_GRID| Real space distribution over                                  4 groups
 RS_GRID| Real space distribution along direction                              2
 RS_GRID| Border size                                                         26
 RS_GRID|   Distribution                         Average         Max         Min
 RS_GRID|   Planes                                 164.5         165         164
 RS_GRID|   Distribution                         Average         Max         Min
 RS_GRID|   Planes                                 160.0         160         160

 RS_GRID| Information for grid number                                          3
 RS_GRID|   Bounds   1           -128     127                Points:         256
 RS_GRID|   Bounds   2           -121     121                Points:         243
 RS_GRID|   Bounds   3           -112     112                Points:         225
 RS_GRID| Real space fully replicated
 RS_GRID| Group size                                                           1

 RS_GRID| Information for grid number                                          4
 RS_GRID|   Bounds   1            -75      74                Points:         150
 RS_GRID|   Bounds   2            -72      71                Points:         144
 RS_GRID|   Bounds   3            -67      67                Points:         135
 RS_GRID| Real space fully replicated
 RS_GRID| Group size                                                           1

 Extrapolation method: initial_guess

 Atomic guess: The first density matrix is obtained in terms of atomic orbitals
               and electronic configurations assigned to each atomic kind

 Guess for atomic kind: N

 Electronic structure
    Total number of core electrons                                          2.00
    Total number of valence electrons                                       5.00
    Total number of electrons                                               7.00
    Multiplicity                                                   not specified
    S   [  2.00] 2.00
    P      3.00


 *******************************************************************************
                  Iteration          Convergence                     Energy [au]
 *******************************************************************************
                          1        0.346146                      -9.510631084718
                          2        0.293961                      -9.519323476596
                          3        0.462882E-02                  -9.543943533173
                          4        0.376937E-03                  -9.543951832803
                          5        0.269242E-05                  -9.543951869815
                          6        0.125879E-05                  -9.543951869817
                          7        0.339213E-08                  -9.543951869817

 Energy components [Hartree]           Total Energy ::           -9.543951869817
                                        Band Energy ::           -2.045283632630
                                     Kinetic Energy ::            6.768365898222
                                   Potential Energy ::          -16.312317768040
                                      Virial (-V/T) ::            2.410082139963
                                        Core Energy ::          -15.546390569991
                                          XC Energy ::           -2.165368606550
                                     Coulomb Energy ::            8.167807306724
                       Total Pseudopotential Energy ::          -22.351839014438
                       Local Pseudopotential Energy ::          -23.300988197283
                    Nonlocal Pseudopotential Energy ::            0.949149182846
                                        Confinement ::            0.370825462242

 Orbital energies  State     L     Occupation   Energy[a.u.]          Energy[eV]

                       1     0          2.000      -0.656585          -17.866573

                       1     1          3.000      -0.244038           -6.640617


 Total Electron Density at R=0:                                         0.000014

 Guess for atomic kind: C

 Electronic structure
    Total number of core electrons                                          2.00
    Total number of valence electrons                                       4.00
    Total number of electrons                                               6.00
    Multiplicity                                                   not specified
    S   [  2.00] 2.00
    P      2.00


 *******************************************************************************
                  Iteration          Convergence                     Energy [au]
 *******************************************************************************
                          1        0.124377                      -5.269415449983
                          2        0.880091E-01                  -5.274432015385
                          3        0.424095E-03                  -5.279419090830
                          4        0.118108E-03                  -5.279419164687
                          5        0.144057E-06                  -5.279419172500

 Energy components [Hartree]           Total Energy ::           -5.279419172500
                                        Band Energy ::           -1.313739125276
                                     Kinetic Energy ::            3.405940495234
                                   Potential Energy ::           -8.685359667734
                                      Virial (-V/T) ::            2.550062069460
                                        Core Energy ::           -8.290068838701
                                          XC Energy ::           -1.377173731606
                                     Coulomb Energy ::            4.387823397806
                       Total Pseudopotential Energy ::          -11.730281123094
                       Local Pseudopotential Energy ::          -12.376528803709
                    Nonlocal Pseudopotential Energy ::            0.646247680614
                                        Confinement ::            0.342717891594

 Orbital energies  State     L     Occupation   Energy[a.u.]          Energy[eV]

                       1     0          2.000      -0.480601          -13.077809

                       1     1          2.000      -0.176269           -4.796521


 Total Electron Density at R=0:                                         0.000000

 Guess for atomic kind: O

 Electronic structure
    Total number of core electrons                                          2.00
    Total number of valence electrons                                       6.00
    Total number of electrons                                               8.00
    Multiplicity                                                   not specified
    S   [  2.00] 2.00
    P      4.00


 *******************************************************************************
                  Iteration          Convergence                     Energy [au]
 *******************************************************************************
                          1        0.767843                     -15.548688912140
                          2        0.707350                     -15.552891087148
                          3        0.233352E-01                 -15.638471141341
                          4        0.140601E-02                 -15.638569711398
                          5        0.207920E-04                 -15.638570020034
                          6        0.225984E-06                 -15.638570020103

 Energy components [Hartree]           Total Energy ::          -15.638570020103
                                        Band Energy ::           -2.987115069665
                                     Kinetic Energy ::           11.758429295155
                                   Potential Energy ::          -27.396999315258
                                      Virial (-V/T) ::            2.329988013497
                                        Core Energy ::          -26.117692585696
                                          XC Energy ::           -3.153357461230
                                     Coulomb Energy ::           13.632480026823
                       Total Pseudopotential Energy ::          -37.911237752663
                       Local Pseudopotential Energy ::          -39.187422590466
                    Nonlocal Pseudopotential Energy ::            1.276184837802
                                        Confinement ::            0.351158718120

 Orbital energies  State     L     Occupation   Energy[a.u.]          Energy[eV]

                       1     0          2.000      -0.854976          -23.265087

                       1     1          4.000      -0.319291           -8.688340


 Total Electron Density at R=0:                                         0.000001

 Guess for atomic kind: H

 Electronic structure
    Total number of core electrons                                          0.00
    Total number of valence electrons                                       1.00
    Total number of electrons                                               1.00
    Multiplicity                                                   not specified
    S      1.00


 *******************************************************************************
                  Iteration          Convergence                     Energy [au]
 *******************************************************************************
                          1        0.364523E-02                  -0.422484553466
                          2        0.146100E-03                  -0.422490428911
                          3        0.266755E-04                  -0.422490480125
                          4        0.362968E-08                  -0.422490480723

 Energy components [Hartree]           Total Energy ::           -0.422490480723
                                        Band Energy ::           -0.192735382727
                                     Kinetic Energy ::            0.477952444388
                                   Potential Energy ::           -0.900442925111
                                      Virial (-V/T) ::            1.883959242566
                                        Core Energy ::           -0.479166166213
                                          XC Energy ::           -0.248560768168
                                     Coulomb Energy ::            0.305236453657
                       Total Pseudopotential Energy ::           -0.975131101124
                       Local Pseudopotential Energy ::           -0.975131101124
                    Nonlocal Pseudopotential Energy ::            0.000000000000
                                        Confinement ::            0.180124905236

 Orbital energies  State     L     Occupation   Energy[a.u.]          Energy[eV]

                       1     0          1.000      -0.192735           -5.244596


 Total Electron Density at R=0:                                         0.249202
 Re-scaling the density matrix to get the right number of electrons
                  # Electrons              Trace(P)               Scaling factor
                           86                86.000                        1.000

 Number of electrons:                                                         86
 Number of occupied orbitals:                                                 43
 Number of molecular orbitals:                                                43

 Number of orbital functions:                                                368
 Number of independent orbital functions:                                    368


 SCF WAVEFUNCTION OPTIMIZATION

  Step     Update method      Time    Convergence         Total energy    Change
  ------------------------------------------------------------------------------
     1 P_Mix/Diag. 0.40E+00   53.7     1.19836599      -128.5818847650 -1.29E+02
     2 P_Mix/Diag. 0.40E+00   60.9     0.63905064      -129.0134233424 -4.32E-01
     3 P_Mix/Diag. 0.40E+00   61.6     0.36385249      -129.2357378955 -2.22E-01
     4 P_Mix/Diag. 0.40E+00   61.8     0.21113381      -129.3680410512 -1.32E-01
     5 P_Mix/Diag. 0.40E+00   60.9     0.11831924      -129.4481786841 -8.01E-02
     6 P_Mix/Diag. 0.40E+00   61.4     0.07051128      -129.4967448691 -4.86E-02
     7 DIIS/Diag.  0.32E-02   60.7     0.04600079      -129.5261476109 -2.94E-02
     8 DIIS/Diag.  0.21E-02   61.6     0.00298242      -129.5708804953 -4.47E-02
     9 DIIS/Diag.  0.14E-02   61.0     0.00237601      -129.5708965369 -1.60E-05
    10 DIIS/Diag.  0.16E-02   61.7     0.00175058      -129.5708951411  1.40E-06
    11 DIIS/Diag.  0.67E-03   61.4     0.00046486      -129.5709026577 -7.52E-06
    12 DIIS/Diag.  0.27E-03   61.8     0.00022716      -129.5709040082 -1.35E-06
    13 DIIS/Diag.  0.22E-03   62.8     0.00016038      -129.5709042318 -2.24E-07
    14 DIIS/Diag.  0.16E-03   61.8     0.00012993      -129.5709042796 -4.78E-08
    15 DIIS/Diag.  0.13E-03   62.1     0.00008894      -129.5709043093 -2.96E-08
    16 DIIS/Diag.  0.12E-03   61.5     0.00006472      -129.5709043222 -1.30E-08
    17 DIIS/Diag.  0.89E-04   60.6     0.00004890      -129.5709043359 -1.37E-08
    18 DIIS/Diag.  0.82E-04   60.6     0.00003676      -129.5709043447 -8.79E-09
    19 DIIS/Diag.  0.71E-04   61.6     0.00006017      -129.5709043516 -6.91E-09
    20 DIIS/Diag.  0.63E-04   61.2     0.00004284      -129.5709043567 -5.14E-09
    21 DIIS/Diag.  0.55E-04   60.3     0.00003082      -129.5709043541  2.65E-09
    22 DIIS/Diag.  0.48E-04   60.1     0.00001940      -129.5709043711 -1.70E-08
    23 DIIS/Diag.  0.41E-04   61.0     0.00002475      -129.5709043689  2.27E-09
    24 DIIS/Diag.  0.34E-04   61.1     0.00002640      -129.5709043666  2.27E-09
    25 DIIS/Diag.  0.34E-04   61.3     0.00002404      -129.5709043820 -1.54E-08
    26 DIIS/Diag.  0.28E-04   61.2     0.00001625      -129.5709043755  6.48E-09
    27 DIIS/Diag.  0.22E-04   61.8     0.00001067      -129.5709043712  4.31E-09
    28 DIIS/Diag.  0.22E-04   60.9     0.00001169      -129.5709043696  1.58E-09
    29 DIIS/Diag.  0.18E-04   61.2     0.00000924      -129.5709043661  3.48E-09

  *** SCF run converged in    29 steps ***


  Electronic density on regular grids:        -85.9999999998        0.0000000002
  Core density on regular grids:               85.9999999942       -0.0000000058
  Total charge density on r-space grids:       -0.0000000056
  Total charge density g-space grids:          -0.0000000056

  Overlap energy of the core charge distribution:               0.00000570287061
  Self energy of the core charge distribution:               -318.21044898734328
  Core Hamiltonian energy:                                     96.82357392914204
  Hartree energy:                                             130.53027030226764
  Exchange-correlation energy:                                -38.71430531306380

  Total energy:                                              -129.57090436612680

 MO| EIGENVALUES AND OCCUPATION NUMBERS
 MO|
 MO|  Index      Eigenvalue [a.u.]        Eigenvalue [eV]             Occupation
 MO|      1              -1.018669             -27.719398               2.000000
 MO|      2              -1.001687             -27.257283               2.000000
 MO|      3              -0.902420             -24.556098               2.000000
 MO|      4              -0.895481             -24.367281               2.000000
 MO|      5              -0.833692             -22.685924               2.000000
 MO|      6              -0.768224             -20.904445               2.000000
 MO|      7              -0.724231             -19.707322               2.000000
 MO|      8              -0.722987             -19.673477               2.000000
 MO|      9              -0.696737             -18.959181               2.000000
 MO|     10              -0.674981             -18.367160               2.000000
 MO|     11              -0.625788             -17.028548               2.000000
 MO|     12              -0.586757             -15.966465               2.000000
 MO|     13              -0.566514             -15.415622               2.000000
 MO|     14              -0.565303             -15.382670               2.000000
 MO|     15              -0.551945             -15.019189               2.000000
 MO|     16              -0.515134             -14.017513               2.000000
 MO|     17              -0.495140             -13.473441               2.000000
 MO|     18              -0.466068             -12.682348               2.000000
 MO|     19              -0.451362             -12.282188               2.000000
 MO|     20              -0.445851             -12.132216               2.000000
 MO|     21              -0.439110             -11.948788               2.000000
 MO|     22              -0.435499             -11.850522               2.000000
 MO|     23              -0.432629             -11.772446               2.000000
 MO|     24              -0.424143             -11.541507               2.000000
 MO|     25              -0.406674             -11.066155               2.000000
 MO|     26              -0.402716             -10.958456               2.000000
 MO|     27              -0.394642             -10.738750               2.000000
 MO|     28              -0.390798             -10.634144               2.000000
 MO|     29              -0.376819             -10.253771               2.000000
 MO|     30              -0.375419             -10.215663               2.000000
 MO|     31              -0.367827             -10.009091               2.000000
 MO|     32              -0.364048              -9.906254               2.000000
 MO|     33              -0.353986              -9.632462               2.000000
 MO|     34              -0.346662              -9.433150               2.000000
 MO|     35              -0.331918              -9.031949               2.000000
 MO|     36              -0.322982              -8.788792               2.000000
 MO|     37              -0.317896              -8.650383               2.000000
 MO|     38              -0.261954              -7.128136               2.000000
 MO|     39              -0.257600              -7.009648               2.000000
 MO|     40              -0.250861              -6.826280               2.000000
 MO|     41              -0.240492              -6.544120               2.000000
 MO|     42              -0.230674              -6.276964               2.000000
 MO|     43              -0.228373              -6.214337               2.000000
 MO| Sum:                                                              86.000000
 MO| E(Fermi):           -0.228373 a.u.         -6.214337 eV


 !-----------------------------------------------------------------------------!
                     Mulliken Population Analysis

 #  Atom  Element  Kind  Atomic population                           Net charge
       1     N        1          5.292596                             -0.292596
       2     C        2          3.805950                              0.194050
       3     C        2          3.650280                              0.349720
       4     O        3          6.516107                             -0.516107
       5     C        2          3.923071                              0.076929
       6     C        2          4.001451                             -0.001451
       7     C        2          4.075508                             -0.075508
       8     C        2          4.035025                             -0.035025
       9     C        2          3.977157                              0.022843
      10     C        2          3.985139                              0.014861
      11     C        2          3.992475                              0.007525
      12     H        4          0.841426                              0.158574
      13     H        4          0.956277                              0.043723
      14     H        4          0.981469                              0.018531
      15     H        4          0.959624                              0.040376
      16     H        4          0.998795                              0.001205
      17     H        4          1.009636                             -0.009636
      18     H        4          1.006582                             -0.006582
      19     H        4          1.009587                             -0.009587
      20     H        4          1.006336                             -0.006336
      21     N        1          5.246048                             -0.246048
      22     H        4          0.851397                              0.148603
      23     C        2          3.809460                              0.190540
      24     H        4          1.004223                             -0.004223
      25     H        4          1.003330                             -0.003330
      26     H        4          0.974846                              0.025154
      27     C        2          3.664278                              0.335722
      28     O        3          6.498893                             -0.498893
      29     C        2          3.949339                              0.050661
      30     H        4          0.984478                              0.015522
      31     H        4          1.005676                             -0.005676
      32     H        4          0.983540                              0.016460
 # Total charge                             86.000000                 -0.000000

 !-----------------------------------------------------------------------------!

 !-----------------------------------------------------------------------------!
                           Hirshfeld Charges

  #Atom  Element  Kind  Ref Charge     Population                    Net charge
      1       N      1       5.000          5.613                        -0.613
      2       C      2       4.000          4.222                        -0.222
      3       C      2       4.000          3.614                         0.386
      4       O      3       6.000          6.599                        -0.599
      5       C      2       4.000          4.777                        -0.777
      6       C      2       4.000          4.014                        -0.014
      7       C      2       4.000          4.472                        -0.472
      8       C      2       4.000          4.457                        -0.457
      9       C      2       4.000          4.441                        -0.441
     10       C      2       4.000          4.443                        -0.443
     11       C      2       4.000          4.447                        -0.447
     12       H      4       1.000          0.471                         0.529
     13       H      4       1.000          0.557                         0.443
     14       H      4       1.000          0.560                         0.440
     15       H      4       1.000          0.552                         0.448
     16       H      4       1.000          0.550                         0.450
     17       H      4       1.000          0.553                         0.447
     18       H      4       1.000          0.552                         0.448
     19       H      4       1.000          0.553                         0.447
     20       H      4       1.000          0.552                         0.448
     21       N      1       5.000          5.618                        -0.618
     22       H      4       1.000          0.479                         0.521
     23       C      2       4.000          5.080                        -1.080
     24       H      4       1.000          0.559                         0.441
     25       H      4       1.000          0.559                         0.441
     26       H      4       1.000          0.548                         0.452
     27       C      2       4.000          3.610                         0.390
     28       O      3       6.000          6.593                        -0.593
     29       C      2       4.000          5.241                        -1.241
     30       H      4       1.000          0.549                         0.451
     31       H      4       1.000          0.558                         0.442
     32       H      4       1.000          0.548                         0.452

  Total Charge                                                            0.055
 !-----------------------------------------------------------------------------!

 ENERGY| Total FORCE_EVAL ( QS ) energy [hartree]           -129.570904366126797

 -------------------------------------------------------------------------------
 -                                                                             -
 -                                DBCSR STATISTICS                             -
 -                                                                             -
 -------------------------------------------------------------------------------
 COUNTER                                    TOTAL       BLAS       SMM       ACC
 flops     6 x     6 x    11              2985840     100.0%      0.0%      0.0%     
 flops    17 x     6 x    11              8199576     100.0%      0.0%      0.0%     
 flops     6 x    17 x    11              8459880     100.0%      0.0%      0.0%     
 flops     6 x     6 x    32              8686080     100.0%      0.0%      0.0%     
 flops    17 x     6 x    32             23853312     100.0%      0.0%      0.0%     
 flops     6 x    17 x    32             24610560     100.0%      0.0%      0.0%     
 flops    17 x    17 x    11             25075952     100.0%      0.0%      0.0%     
 flops    17 x    17 x    32             72948224     100.0%      0.0%      0.0%     
 flops inhomo. stacks                           0       0.0%      0.0%      0.0%
 flops total                       174.819424E+06     100.0%      0.0%      0.0%
 flops max/rank                     12.175708E+06     100.0%      0.0%      0.0%
 matmuls inhomo. stacks                         0       0.0%      0.0%      0.0%
 matmuls total                              30276     100.0%      0.0%      0.0%
 number of processed stacks                  3712     100.0%      0.0%      0.0%
 average stack size                                     8.2       0.0       0.0
 marketing flops                   337.747456E+06
 -------------------------------------------------------------------------------
 # multiplications                             29
 max memory usage/rank              13.979886E+09
 # max total images/rank                        1
 # max 3D layers                                1
 # MPI messages exchanged                    2784
 MPI messages size (bytes):
  total size                        22.027008E+06
  min size                           0.000000E+00
  max size                          23.552000E+03
  average size                       7.912000E+03
 MPI breakdown and total messages size (bytes):
             size <=      128                1392                        0
       128 < size <=     8192                 696                  5634816
      8192 < size <=    32768                 696                 16392192
     32768 < size <=   131072                   0                        0
    131072 < size <=  4194304                   0                        0
   4194304 < size <= 16777216                   0                        0
  16777216 < size                               0                        0
 -------------------------------------------------------------------------------
 -                                                                             -
 -                      DBCSR MESSAGE PASSING PERFORMANCE                      -
 -                                                                             -
 -------------------------------------------------------------------------------
 ROUTINE             CALLS      AVE VOLUME [Bytes]
 MP_Bcast                9                     12.
 MP_Allreduce          180                     11.
 MP_Alltoall           957                  30873.
 MP_ISend              464                   4066.
 MP_IRecv              464                   1110.
 -------------------------------------------------------------------------------

 -------------------------------------------------------------------------------
 -                                                                             -
 -                                GRID STATISTICS                              -
 -                                                                             -
 -------------------------------------------------------------------------------
 LP    KERNEL             BACKEND                              COUNT     PERCENT
 3     collocate ortho    CPU                                   9030      23.56%
 3     integrate ortho    CPU                                   8729      22.77%
 4     collocate ortho    CPU                                   6210      16.20%
 4     integrate ortho    CPU                                   6003      15.66%
 2     collocate ortho    CPU                                   4200      10.96%
 2     integrate ortho    CPU                                   4060      10.59%
 0     collocate general  CPU                                     64       0.17%
 0     integrate general  CPU                                     32       0.08%
 -------------------------------------------------------------------------------

 -------------------------------------------------------------------------------
 -                                                                             -
 -                          OFFLOAD MEMPOOL STATISTICS                         -
 -                                                                             -
 -------------------------------------------------------------------------------
 Memory consumption                Number of allocations  Used [MiB]  Size [MiB]
 Host                                                  6         504    21367849
 -------------------------------------------------------------------------------

 MEMORY| Estimated peak process memory [MiB]                               10945

 -------------------------------------------------------------------------------
 ----                             MULTIGRID INFO                            ----
 -------------------------------------------------------------------------------
 count for grid        1:         382648          cutoff [a.u.]          500.00
 count for grid        2:         299310          cutoff [a.u.]          166.67
 count for grid        3:         231464          cutoff [a.u.]           55.56
 count for grid        4:         102241          cutoff [a.u.]           18.52
 total gridlevel count  :        1015663

 -------------------------------------------------------------------------------
 -                                                                             -
 -                         MESSAGE PASSING PERFORMANCE                         -
 -                                                                             -
 -------------------------------------------------------------------------------

 ROUTINE             CALLS      AVE VOLUME [Bytes]
 MP_Group                4
 MP_Bcast              180                 228484.
 MP_Allreduce          514                  78415.
 MP_Sync                33
 MP_Alltoall           369              547968142.
 MP_SendRecv           900                4276800.
 MP_ISendRecv          870                4276800.
 MP_Wait              2201
 MP_comm_split          29
 MP_ISend              968               24873583.
 MP_IRecv              968               24874119.
 -------------------------------------------------------------------------------


 -------------------------------------------------------------------------------
 -                                                                             -
 -                           R E F E R E N C E S                               -
 -                                                                             -
 -------------------------------------------------------------------------------
 
 CP2K version 2026.2, the CP2K developers group (2026).
 CP2K is freely available from https://www.cp2k.org/ .
 
 M. Iannuzzi, J. Wilhelm, F. Stein, A. Bussy, H. Elgabarty, D. Golze, A. Hehn, 
 M. Graml, S. Marek, B. Sertcan Gökmen, C. Schran, H. Forbert, R. Z. 
 Khaliullin, A. Kozhevnikov, M. Taillefumier, R. Meli, V. V. Rybkin, M. Brehm, 
 R. Schade, O. Schütt, J. V. Pototschnig, H. Mirhosseini, A. Knüpfer, D. Marx, 
 M. Krack, J. Hutter, T. D. Kühne.
 J. Phys. Chem. B 130, 1237-1310 (2026).
 The CP2K Program Package Made Simple.
 https://doi.org/10.1021/acs.jpcb.5c05851

 T. D. Kühne, M. Iannuzzi, M. Del Ben, V. V. Rybkin, P. Seewald, F. Stein, T. 
 Laino, R. Z. Khaliullin, O. Schütt, F. Schiffmann, D. Golze, J. Wilhelm, S. 
 Chulkov, M. H. Bani-Hashemian, V. Weber, U. Borstnik, M. Taillefumier, A. S. 
 Jakobovits, A. Lazzaro, H. Pabst, T. Müller, R. Schade, M. Guidon, S. 
 Andermatt, N. Holmberg, G. K. Schenter, A. Hehn, A. Bussy, F. Belleflamme, G. 
 Tabacchi, A. Glöß, M. Lass, I. Bethune, C. J. Mundy, C. Plessl, M. Watkins, 
 J. VandeVondele, M. Krack, J. Hutter.
 J. Chem. Phys. 152, 194103 (2020).
 CP2K: An electronic structure and molecular dynamics software package - 
 Quickstep: Efficient and accurate electronic structure calculations.
 https://doi.org/10.1063/5.0007045

 O. Schuett, P. Messmer, J. Hutter, J. VandeVondele.
 Electronic Structure Calculations on Graphics Processing Units, 173-190 (2016).
 GPU-Accelerated Sparse Matrix-Matrix Multiplication for Linear Scaling Density 
 Functional Theory.
 https://doi.org/10.1002/9781118670712.ch8

 U. Borstnik, J. VandeVondele, V. Weber, J. Hutter.
 Parallel Comput. 40, 47-58 (2014).
 Sparse matrix multiplication: The distributed block-compressed sparse row 
 library.
 https://doi.org/10.1016/j.parco.2014.03.012

 J. VandeVondele, J. Hutter.
 J. Chem. Phys. 127, 114105 (2007).
 Gaussian basis sets for accurate calculations on molecular systems in gas and 
 condensed phases.
 https://doi.org/10.1063/1.2770708

 J. VandeVondele, M. Krack, F. Mohamed, M. Parrinello, T. Chassaing, J. Hutter.
 Comput. Phys. Commun. 167, 103-128 (2005).
 QUICKSTEP: Fast and accurate density functional calculations using a mixed 
 Gaussian and plane waves approach.
 https://doi.org/10.1016/j.cpc.2004.12.014

 M. Krack.
 Theor. Chem. Acc. 114, 145-152 (2005).
 Pseudopotentials for H to Kr optimized for gradient-corrected 
 exchange-correlation functionals.
 https://doi.org/10.1007/s00214-005-0655-y

 M. Frigo, S. G. Johnson.
 Proc. IEEE 93, 216-231 (2005).
 The design and implementation of FFTW3.
 https://doi.org/10.1109/JPROC.2004.840301

 C. Hartwigsen, S. Goedecker, J. Hutter.
 Phys. Rev. B 58, 3641-3662 (1998).
 Relativistic separable dual-space Gaussian pseudopotentials from H to Rn.
 https://doi.org/10.1103/PhysRevB.58.3641

 G. Lippert, J. Hutter, M. Parrinello.
 Mol. Phys. 92, 477-487 (1997).
 A hybrid Gaussian and plane wave density functional scheme.
 https://doi.org/10.1080/002689797170220

 S. Goedecker, M. Teter, J. Hutter.
 Phys. Rev. B 54, 1703-1710 (1996).
 Separable dual-space Gaussian pseudopotentials.
 https://doi.org/10.1103/PhysRevB.54.1703


 -------------------------------------------------------------------------------
 -                                                                             -
 -                                T I M I N G                                  -
 -                                                                             -
 -------------------------------------------------------------------------------
 SUBROUTINE                       CALLS  ASD         SELF TIME        TOTAL TIME
                                MAXIMUM       AVERAGE  MAXIMUM  AVERAGE  MAXIMUM
 CP2K                                 1  1.0    0.069    0.076 1797.412 1797.412
 qs_energies                          1  2.0    0.000    0.000 1789.980 1789.981
 scf_env_do_scf                       1  3.0    0.000    0.000 1777.174 1777.174
 scf_env_do_scf_inner_loop           29  4.0    0.001    0.002 1777.174 1777.174
 qs_ks_update_qs_env                 29  5.0    0.000    0.000 1568.086 1568.092
 rebuild_ks_matrix                   29  6.0    0.000    0.000 1568.082 1568.088
 qs_ks_build_kohn_sham_matrix        29  7.0 1301.256 1301.408 1568.082 1568.088
 fft_wrap_pw1pw2                    296  9.2    0.014    0.021  342.334  343.338
 fft_wrap_pw1pw2_500                119  9.7   10.914   11.538  303.276  310.045
 fft3d_ps                           296 11.2  114.925  118.002  216.999  226.646
 qs_rho_update_rho_low               30  5.0    0.000    0.000  215.960  215.961
 calculate_rho_elec                  30  6.0    3.043    3.069  215.960  215.960
 density_rs2pw                       30  7.0    0.004    0.005  201.929  202.560
 sum_up_and_integrate                29  8.0    0.000    0.000  129.191  129.200
 integrate_v_rspace                  29  9.0    0.001    0.001  129.191  129.200
 potential_pw2rs                     29 10.0    0.156    0.180  128.555  128.581
 pw_gather_p                        150 10.6   69.566   76.368   69.566   76.368
 pw_poisson_solve                    29  8.0    0.002    0.002   62.603   64.603
 yz_to_x                            150 11.6   39.673   41.547   55.723   59.569
 x_to_yz                            146 12.8   28.805   29.419   46.336   52.995
 mp_alltoall_z22v                   296 13.2   33.582   43.831   33.582   43.831
 pw_poisson_set                      30  8.9    0.004    0.005   39.266   41.266
 pw_scatter_p                       146 11.8   31.268   39.050   31.268   39.050
 fft_wrap_pw1pw2_170                 59 10.5    0.367    0.428   32.843   37.651
 -------------------------------------------------------------------------------

 The number of warnings for this run is : 0
 
 -------------------------------------------------------------------------------
  **** **** ******  **  PROGRAM ENDED AT                 2026-08-13 13:35:03.189
 ***** ** ***  *** **   PROGRAM RAN ON            eb3791e2ef3243b6944400b65b9622
 **    ****   ******    PROGRAM RAN BY                                 <unknown>
 ***** **    ** ** **   PROGRAM PROCESS ID                                  1639
  **** **  *******  **  PROGRAM STOPPED IN                    /tmp/cp2k_qwunoy4_
