 DBCSR| CPU Multiplication driver                                           XSMM (U)
 DBCSR| Multrec recursion limit                                              512 (U)
 DBCSR| Multiplication stack size                                           1000 (D)
 DBCSR| Maximum elements for images                                    UNLIMITED (U)
 DBCSR| Multiplicative factor virtual images                                   1 (U)
 DBCSR| Use multiplication densification                                       T (D)
 DBCSR| Multiplication size stacks                                             3 (U)
 DBCSR| Use memory pool for CPU allocation                                     F (U)
 DBCSR| Number of 3D layers                                               SINGLE (U)
 DBCSR| Use MPI memory allocation                                              F (U)
 DBCSR| Use RMA algorithm                                                      F (U)
 DBCSR| Use Communication thread                                               T (U)
 DBCSR| Communication thread load                                             87 (D)
 DBCSR| MPI: My process id                                                     0
 DBCSR| MPI: Number of processes                                               1
 DBCSR| OMP: Current number of threads                                         1
 DBCSR| OMP: Max number of threads                                             1
 DBCSR| Split modifier for TAS multiplication algorithm                  1.0E+00 (U)


  **** **** ******  **  PROGRAM STARTED AT               2026-05-30 14:40:46.452
 ***** ** ***  *** **   PROGRAM STARTED ON                            spark-c86c
 **    ****   ******    PROGRAM STARTED BY                              kuehne88
 ***** **    ** ** **   PROGRAM PROCESS ID                                136340
  **** **  *******  **  PROGRAM STARTED IN /home/kuehne88/molecular-skala-final-
                                           20260530-prhead/skala-molopt-bench/ru
                                           ns/H2O_GPW_native_pbe_virial_plus

 CP2K| version string:                 CP2K version 2026.1 (Development Version)
 CP2K| source code revision number:                                   362771334d
 CP2K| cp2kflags: omp libint fftw3 libxc gauxc gauxc_mpi gauxc_onedft gauxc_host
 CP2K|             gauxc_device gauxc_cuda parallel scalapack xsmm spglib libtor
 CP2K|            rch
 CP2K| is freely available from                            https://www.cp2k.org/
 CP2K| Program compiled at                                   2026-05-29 22:13:32
 CP2K| Program compiled on                                            spark-c86c
 CP2K| Program compiled for                                              aarch64
 CP2K| Data directory path        /home/kuehne88/cp2k-periodic-skala-verify/data
 CP2K| Input file name                                                 input.inp

 GLOBAL| Force Environment number                                              1
 GLOBAL| Basis set file name                                    BASIS_MOLOPT_UZH
 GLOBAL| Potential file name                                       POTENTIAL_UZH
 GLOBAL| MM Potential file name                                     MM_POTENTIAL
 GLOBAL| Coordinate file name                                      __STD_INPUT__
 GLOBAL| Method name                                                        CP2K
 GLOBAL| Project name                                         H2O_GPW_native_pbe
 GLOBAL| Run type                                                         ENERGY
 GLOBAL| FFT library                                                       FFTW3
 GLOBAL| Diagonalization library                                       ScaLAPACK
 GLOBAL| Cholesky decomposition library                                ScaLAPACK
 GLOBAL| DGEMM library                                                      BLAS
 GLOBAL| Direct generalized diagonalization requested                          F
 GLOBAL| Orthonormality check for eigenvectors                          DISABLED
 GLOBAL| Matrix multiplication library                                 ScaLAPACK
 GLOBAL| All-to-all communication in single precision                          F
 GLOBAL| FFTs using library dependent lengths                                  F
 GLOBAL| Grid backend                                                       AUTO
 GLOBAL| Global print level                                                  LOW
 GLOBAL| MPI I/O enabled                                                       T
 GLOBAL| Total number of message passing processes                             1
 GLOBAL| Number of distributed systems (nodes)                                 1
 GLOBAL| Number of threads for this process                                    1
 GLOBAL| This output is from process                                           0
 GLOBAL| OpenMP stack size per thread (OMP_STACKSIZE)                       512M
 GLOBAL| CPU model name                                                  UNKNOWN
 GLOBAL| CPUID                                                              2200
 GLOBAL| Compiled for CPUID                                                 2000

 *** HINT in environment.F:970 :: The compiler target flags (arm_arch64)   ***
 *** used to build this binary cannot exploit all extensions of this CPU   ***
 *** model (arm_sve256). Consider compiler target flags as part of FCFLAGS ***
 *** and CFLAGS (ARCH file).                                               ***


 MEMORY| system memory details [Kb]
 MEMORY|                        rank 0           min           max       average
 MEMORY| MemTotal            125508532     125508532     125508532     125508532
 MEMORY| MemFree              49458628      49458628      49458628      49458628
 MEMORY| Buffers               1405040       1405040       1405040       1405040
 MEMORY| Cached               63181184      63181184      63181184      63181184
 MEMORY| Slab                  3498132       3498132       3498132       3498132
 MEMORY| SReclaimable          2641924       2641924       2641924       2641924
 MEMORY| MemLikelyFree       116686776     116686776     116686776     116686776


 GENERATE|  Preliminary Number of Bonds generated:                             0
 GENERATE|  Achieved consistency in connectivity generation.

 *******************************************************************************
 *******************************************************************************
 **                                                                           **
 **     #####                         ##              ##                      **
 **    ##   ##            ##          ##              ##                      **
 **   ##     ##                       ##            ######                    **
 **   ##     ##  ##   ##  ##   #####  ##  ##   ####   ##    #####    #####    **
 **   ##     ##  ##   ##  ##  ##      ## ##   ##      ##   ##   ##  ##   ##   **
 **   ##  ## ##  ##   ##  ##  ##      ####     ###    ##   ######   ######    **
 **    ##  ###   ##   ##  ##  ##      ## ##      ##   ##   ##       ##        **
 **     #######   #####   ##   #####  ##  ##  ####    ##    #####   ##        **
 **           ##                                                    ##        **
 **                                                                           **
 **                                                ... make the atoms dance   **
 **                                                                           **
 **            Copyright (C) by CP2K developers group (2000-2026)             **
 **                      J. Chem. Phys. 152, 194103 (2020)                    **
 **                                                                           **
 *******************************************************************************


 TOTAL NUMBERS AND MAXIMUM NUMBERS

  Total number of            - Atomic kinds:                                   2
                             - Atoms:                                          3
                             - Shell sets:                                     3
                             - Shells:                                        21
                             - Primitive Cartesian functions:                 15
                             - Cartesian basis functions:                     64
                             - Spherical basis functions:                     57

  Maximum angular momentum of- Orbital basis functions:                        3
                             - Local part of the GTH pseudopotential:          2
                             - Non-local part of the GTH pseudopotential:      0


 SCF PARAMETERS         Density guess:                                    ATOMIC
                        --------------------------------------------------------
                        max_scf:                                             100
                        max_scf_history:                                       0
                        max_diis:                                              4
                        --------------------------------------------------------
                        eps_scf:                                        1.00E-08
                        eps_scf_history:                                0.00E+00
                        eps_diis:                                       1.00E-01
                        eps_eigval:                                     1.00E-05
                        --------------------------------------------------------
                        level_shift [a.u.]:                             0.000000
                        --------------------------------------------------------
                        Mixing method:                           DIRECT_P_MIXING
                        --------------------------------------------------------
                        No outer SCF

 Extrapolation method: initial_guess

 Number of electrons:                                                          8
 Number of occupied orbitals:                                                  4
 Number of molecular orbitals:                                                 4

 Number of orbital functions:                                                 57
 Number of independent orbital functions:                                     57


 SCF WAVEFUNCTION OPTIMIZATION

  Step     Update method      Time    Convergence         Total energy    Change
  ------------------------------------------------------------------------------
     1 P_Mix/Diag. 0.40E+00    3.1     0.65415935       -17.0499027027 -1.70E+01
     2 P_Mix/Diag. 0.40E+00    2.1     0.43591010       -17.1174839070 -6.76E-02
     3 P_Mix/Diag. 0.40E+00    2.1     0.25732053       -17.1590467567 -4.16E-02
     4 P_Mix/Diag. 0.40E+00    2.1     0.15442254       -17.1836265076 -2.46E-02
     5 P_Mix/Diag. 0.40E+00    2.0     0.09214757       -17.1982484085 -1.46E-02
     6 DIIS/Diag.  0.24E-02    2.0     0.05476740       -17.2069833476 -8.73E-03
     7 DIIS/Diag.  0.27E-03    2.0     0.00008279       -17.2200468546 -1.31E-02
     8 DIIS/Diag.  0.15E-03    2.0     0.00010857       -17.2200468645 -9.94E-09
     9 DIIS/Diag.  0.27E-03    2.0     0.00010227       -17.2200468576  6.91E-09
    10 DIIS/Diag.  0.27E-04    2.0     0.00001335       -17.2200468676 -1.00E-08
    11 DIIS/Diag.  0.20E-05    2.0     0.00000044       -17.2200468677 -1.31E-10
    12 DIIS/Diag.  0.16E-06    2.0     0.00000008       -17.2200468677 -6.43E-13
    13 DIIS/Diag.  0.73E-07    2.0     0.00000003       -17.2200468677  0.00E+00
    14 DIIS/Diag.  0.33E-07    2.0     0.00000001       -17.2200468677  0.00E+00
    15 DIIS/Diag.  0.19E-07    2.0     5.7454E-09       -17.2200468677  1.07E-14

  *** SCF run converged in    15 steps ***


  Electronic density on regular grids:         -8.0000000000        0.0000000000
  Core density on regular grids:                7.9999999997       -0.0000000003
  Total charge density on r-space grids:       -0.0000000002
  Total charge density g-space grids:          -0.0000000002

  Overlap energy of the core charge distribution:               0.00000007039725
  Self energy of the core charge distribution:                -44.35427365113802
  Core Hamiltonian energy:                                     12.92919370951857
  Hartree energy:                                              18.43806736979823
  Exchange-correlation energy:                                 -4.23303436632116

  Total energy:                                               -17.22004686774513

 ENERGY| Total FORCE_EVAL ( QS ) energy [hartree]            -17.220046867745129

 -------------------------------------------------------------------------------
 -                                                                             -
 -                                DBCSR STATISTICS                             -
 -                                                                             -
 -------------------------------------------------------------------------------
 COUNTER                                    TOTAL       BLAS       SMM       ACC
 flops    29 x    14 x     4                48720       0.0%    100.0%      0.0%     
 flops    14 x    29 x     4                48720       0.0%    100.0%      0.0%     
 flops    14 x    14 x     4                70560       0.0%    100.0%      0.0%     
 flops    29 x    29 x     4               100920       0.0%    100.0%      0.0%     
 flops inhomo. stacks                           0       0.0%      0.0%      0.0%
 flops total                       268.920000E+03       0.0%    100.0%      0.0%
 flops max/rank                    268.920000E+03       0.0%    100.0%      0.0%
 matmuls inhomo. stacks                         0       0.0%      0.0%      0.0%
 matmuls total                                 90       0.0%    100.0%      0.0%
 number of processed stacks                    60       0.0%    100.0%      0.0%
 average stack size                                     0.0       1.5       0.0
 marketing flops                   389.880000E+03
 -------------------------------------------------------------------------------
 # multiplications                             15
 max memory usage/rank              19.989250E+09
 # max total images/rank                        1
 # max 3D layers                                1
 # MPI messages exchanged                       0
 -------------------------------------------------------------------------------
 -                                                                             -
 -                      DBCSR MESSAGE PASSING PERFORMANCE                      -
 -                                                                             -
 -------------------------------------------------------------------------------
 ROUTINE             CALLS      AVE VOLUME [Bytes]
 MP_Bcast                5                     12.
 MP_Allreduce          102                     12.
 MP_Alltoall           495                  12962.
 MP_ISend               60                     60.
 MP_IRecv               60                     60.
 -------------------------------------------------------------------------------

 -------------------------------------------------------------------------------
 -                                                                             -
 -                                GRID STATISTICS                              -
 -                                                                             -
 -------------------------------------------------------------------------------
 LP    KERNEL             BACKEND                              COUNT     PERCENT
 4     collocate ortho    CPU                                   1184      25.62%
 4     integrate ortho    CPU                                   1110      24.02%
 5     collocate ortho    CPU                                    800      17.31%
 5     integrate ortho    CPU                                    750      16.23%
 6     collocate ortho    CPU                                    400       8.65%
 6     integrate ortho    CPU                                    375       8.11%
 0     collocate general  CPU                                      3       0.06%
 -------------------------------------------------------------------------------

 -------------------------------------------------------------------------------
 -                                                                             -
 -                          OFFLOAD MEMPOOL STATISTICS                         -
 -                                                                             -
 -------------------------------------------------------------------------------
 Memory consumption                Number of allocations  Used [MiB]  Size [MiB]
 Device                                                6          56          56
 Host                                                  6          56          56
 -------------------------------------------------------------------------------

 MEMORY| Estimated peak process memory [MiB]                                3038

 -------------------------------------------------------------------------------
 -                                                                             -
 -                         MESSAGE PASSING PERFORMANCE                         -
 -                                                                             -
 -------------------------------------------------------------------------------

 ROUTINE             CALLS      AVE VOLUME [Bytes]
 MP_Group                5
 MP_Bcast               30                    230.
 MP_Allreduce          191                      8.
 MP_Sync                19
 MP_comm_split          15
 -------------------------------------------------------------------------------


 -------------------------------------------------------------------------------
 -                                                                             -
 -                           R E F E R E N C E S                               -
 -                                                                             -
 -------------------------------------------------------------------------------
 
 CP2K version 2026.1 (Development Version), the CP2K developers group (2026).
 CP2K is freely available from https://www.cp2k.org/ .
 
 M. Iannuzzi, J. Wilhelm, F. Stein, A. Bussy, H. Elgabarty, D. Golze, A. Hehn, 
 M. Graml, S. Marek, B. Sertcan Gökmen, C. Schran, H. Forbert, R. Z. 
 Khaliullin, A. Kozhevnikov, M. Taillefumier, R. Meli, V. V. Rybkin, M. Brehm, 
 R. Schade, O. Schütt, J. V. Pototschnig, H. Mirhosseini, A. Knüpfer, D. Marx, 
 M. Krack, J. Hutter, T. D. Kühne.
 J. Phys. Chem. B 130, 1237-1310 (2026).
 The CP2K Program Package Made Simple.
 https://doi.org/10.1021/acs.jpcb.5c05851

 T. D. Kühne, M. Iannuzzi, M. Del Ben, V. V. Rybkin, P. Seewald, F. Stein, T. 
 Laino, R. Z. Khaliullin, O. Schütt, F. Schiffmann, D. Golze, J. Wilhelm, S. 
 Chulkov, M. H. Bani-Hashemian, V. Weber, U. Borstnik, M. Taillefumier, A. S. 
 Jakobovits, A. Lazzaro, H. Pabst, T. Müller, R. Schade, M. Guidon, S. 
 Andermatt, N. Holmberg, G. K. Schenter, A. Hehn, A. Bussy, F. Belleflamme, G. 
 Tabacchi, A. Glöß, M. Lass, I. Bethune, C. J. Mundy, C. Plessl, M. Watkins, 
 J. VandeVondele, M. Krack, J. Hutter.
 J. Chem. Phys. 152, 194103 (2020).
 CP2K: An electronic structure and molecular dynamics software package - 
 Quickstep: Efficient and accurate electronic structure calculations.
 https://doi.org/10.1063/5.0007045

 O. Schuett, P. Messmer, J. Hutter, J. VandeVondele.
 Electronic Structure Calculations on Graphics Processing Units, 173-190 (2016).
 GPU-Accelerated Sparse Matrix-Matrix Multiplication for Linear Scaling Density 
 Functional Theory.
 https://doi.org/10.1002/9781118670712.ch8

 A. Heinecke, G. Henry, M. Hutchinson, H. Pabst.
 Proceedings of Intl. Supercomputing Conference, 981-991 (2016).
 LIBXSMM: Accelerating Small Matrix Multiplications by Runtime Code Generation.
 https://doi.org/10.1109/SC.2016.83

 U. Borstnik, J. VandeVondele, V. Weber, J. Hutter.
 Parallel Comput. 40, 47-58 (2014).
 Sparse matrix multiplication: The distributed block-compressed sparse row 
 library.
 https://doi.org/10.1016/j.parco.2014.03.012

 J. VandeVondele, J. Hutter.
 J. Chem. Phys. 127, 114105 (2007).
 Gaussian basis sets for accurate calculations on molecular systems in gas and 
 condensed phases.
 https://doi.org/10.1063/1.2770708

 J. VandeVondele, M. Krack, F. Mohamed, M. Parrinello, T. Chassaing, J. Hutter.
 Comput. Phys. Commun. 167, 103-128 (2005).
 QUICKSTEP: Fast and accurate density functional calculations using a mixed 
 Gaussian and plane waves approach.
 https://doi.org/10.1016/j.cpc.2004.12.014

 M. Krack.
 Theor. Chem. Acc. 114, 145-152 (2005).
 Pseudopotentials for H to Kr optimized for gradient-corrected 
 exchange-correlation functionals.
 https://doi.org/10.1007/s00214-005-0655-y

 M. Frigo, S. G. Johnson.
 Proc. IEEE 93, 216-231 (2005).
 The design and implementation of FFTW3.
 https://doi.org/10.1109/JPROC.2004.840301

 G. J. Martyna, M. E. Tuckerman.
 J. Chem. Phys. 110, 2810-2821 (1999).
 A reciprocal space based method for treating long range interactions in ab 
 initio and force-field-based calculations in clusters.
 https://doi.org/10.1063/1.477923

 C. Hartwigsen, S. Goedecker, J. Hutter.
 Phys. Rev. B 58, 3641-3662 (1998).
 Relativistic separable dual-space Gaussian pseudopotentials from H to Rn.
 https://doi.org/10.1103/PhysRevB.58.3641

 G. Lippert, J. Hutter, M. Parrinello.
 Mol. Phys. 92, 477-487 (1997).
 A hybrid Gaussian and plane wave density functional scheme.
 https://doi.org/10.1080/002689797170220

 S. Goedecker, M. Teter, J. Hutter.
 Phys. Rev. B 54, 1703-1710 (1996).
 Separable dual-space Gaussian pseudopotentials.
 https://doi.org/10.1103/PhysRevB.54.1703

 J. P. Perdew, K. Burke, M. Ernzerhof.
 Phys. Rev. Lett. 77, 3865-3868 (1996).
 Generalized gradient approximation made simple.
 https://doi.org/10.1103/PhysRevLett.77.3865


 -------------------------------------------------------------------------------
 -                                                                             -
 -                                T I M I N G                                  -
 -                                                                             -
 -------------------------------------------------------------------------------
 SUBROUTINE                       CALLS  ASD         SELF TIME        TOTAL TIME
                                MAXIMUM       AVERAGE  MAXIMUM  AVERAGE  MAXIMUM
 CP2K                                 1  1.0    0.146    0.146   36.381   36.381
 qs_energies                          1  2.0    0.000    0.000   32.326   32.326
 scf_env_do_scf                       1  3.0    0.000    0.000   31.667   31.667
 scf_env_do_scf_inner_loop           15  4.0    0.001    0.001   31.667   31.667
 qs_ks_update_qs_env                 15  5.0    0.000    0.000   26.867   26.867
 rebuild_ks_matrix                   15  6.0    0.000    0.000   26.867   26.867
 qs_ks_build_kohn_sham_matrix        15  7.0    0.001    0.001   26.867   26.867
 fft_wrap_pw1pw2                    262 10.2    0.002    0.002   23.534   23.534
 fft_wrap_pw1pw2_300                168 11.7    3.188    3.188   22.046   22.046
 qs_vxc_create                       15  8.0    0.000    0.000   19.277   19.277
 xc_vxc_pw_create                    15  9.0    0.418    0.418   19.277   19.277
 xc_pw_derive                        90 11.0    0.000    0.000   13.214   13.214
 fft3d_s                            263 12.2   11.064   11.064   11.068   11.068
 xc_pw_divergence                    15 10.0    0.000    0.000    9.502    9.502
 xc_rho_set_and_dset_create          15 10.0    0.444    0.444    9.197    9.197
 qs_rho_update_rho_low               16  5.0    0.000    0.000    5.202    5.202
 calculate_rho_elec                  16  6.0    0.193    0.193    5.202    5.202
 density_rs2pw                       16  7.0    0.001    0.001    4.882    4.882
 pw_gather_s                        126 11.8    4.697    4.697    4.697    4.697
 qs_init_subsys                       1  2.0    0.000    0.000    3.899    3.899
 qs_env_setup                         1  3.0    0.000    0.000    3.897    3.897
 qs_env_rebuild_pw_env                2  3.5    0.000    0.000    3.897    3.897
 pw_env_rebuild                       1  5.0    0.000    0.000    3.897    3.897
 pw_grid_setup                        5  6.0    0.000    0.000    3.896    3.896
 pw_grid_setup_internal               5  7.0    0.036    0.036    3.896    3.896
 pw_scatter_s                       136 12.6    3.862    3.862    3.862    3.862
 pw_grid_sort                         5  8.0    2.858    2.858    3.475    3.475
 xc_functional_eval                  15 11.0    0.000    0.000    2.913    2.913
 pbe_lda_eval                        15 12.0    2.913    2.913    2.913    2.913
 sum_up_and_integrate                15  8.0    0.000    0.000    2.886    2.886
 integrate_v_rspace                  15  9.0    0.000    0.000    2.784    2.784
 pw_poisson_solve                    15  8.0    0.000    0.000    2.781    2.781
 potential_pw2rs                     15 10.0    0.011    0.011    2.657    2.657
 pw_derive                          135 11.3    1.577    1.577    1.577    1.577
 pw_poisson_rebuild                  15  9.0    0.027    0.027    1.205    1.205
 MTin_create_screen_fn                1 10.0    0.066    0.066    1.178    1.178
 fft_wrap_pw1pw2_600                  1 12.0    0.094    0.094    0.855    0.855
 pw_copy                            225 10.5    0.836    0.836    0.836    0.836
 pw_poisson_set                      16  8.8    0.000    0.000    0.802    0.802
 -------------------------------------------------------------------------------

 The number of warnings for this run is : 0
 
 -------------------------------------------------------------------------------
  **** **** ******  **  PROGRAM ENDED AT                 2026-05-30 14:41:23.076
 ***** ** ***  *** **   PROGRAM RAN ON                                spark-c86c
 **    ****   ******    PROGRAM RAN BY                                  kuehne88
 ***** **    ** ** **   PROGRAM PROCESS ID                                136340
  **** **  *******  **  PROGRAM STOPPED IN /home/kuehne88/molecular-skala-final-
                                           20260530-prhead/skala-molopt-bench/ru
                                           ns/H2O_GPW_native_pbe_virial_plus
