 DBCSR| CPU Multiplication driver                                           XSMM (U)
 DBCSR| Multrec recursion limit                                              512 (U)
 DBCSR| Multiplication stack size                                           1000 (D)
 DBCSR| Maximum elements for images                                    UNLIMITED (U)
 DBCSR| Multiplicative factor virtual images                                   1 (U)
 DBCSR| Use multiplication densification                                       T (D)
 DBCSR| Multiplication size stacks                                             3 (U)
 DBCSR| Use memory pool for CPU allocation                                     F (U)
 DBCSR| Number of 3D layers                                               SINGLE (U)
 DBCSR| Use MPI memory allocation                                              F (U)
 DBCSR| Use RMA algorithm                                                      F (U)
 DBCSR| Use Communication thread                                               T (U)
 DBCSR| Communication thread load                                             87 (D)
 DBCSR| MPI: My process id                                                     0
 DBCSR| MPI: Number of processes                                               1
 DBCSR| OMP: Current number of threads                                         1
 DBCSR| OMP: Max number of threads                                             1
 DBCSR| Split modifier for TAS multiplication algorithm                  1.0E+00 (U)


  **** **** ******  **  PROGRAM STARTED AT               2026-05-30 14:42:33.662
 ***** ** ***  *** **   PROGRAM STARTED ON                            spark-c86c
 **    ****   ******    PROGRAM STARTED BY                              kuehne88
 ***** **    ** ** **   PROGRAM PROCESS ID                                136467
  **** **  *******  **  PROGRAM STARTED IN /home/kuehne88/molecular-skala-final-
                                           20260530-prhead/skala-molopt-bench/ru
                                           ns/H2O_GPW_gauxc_pbe_force_minus

 CP2K| version string:                 CP2K version 2026.1 (Development Version)
 CP2K| source code revision number:                                   362771334d
 CP2K| cp2kflags: omp libint fftw3 libxc gauxc gauxc_mpi gauxc_onedft gauxc_host
 CP2K|             gauxc_device gauxc_cuda parallel scalapack xsmm spglib libtor
 CP2K|            rch
 CP2K| is freely available from                            https://www.cp2k.org/
 CP2K| Program compiled at                                   2026-05-29 22:13:32
 CP2K| Program compiled on                                            spark-c86c
 CP2K| Program compiled for                                              aarch64
 CP2K| Data directory path        /home/kuehne88/cp2k-periodic-skala-verify/data
 CP2K| Input file name                                                 input.inp

 GLOBAL| Force Environment number                                              1
 GLOBAL| Basis set file name                                    BASIS_MOLOPT_UZH
 GLOBAL| Potential file name                                       POTENTIAL_UZH
 GLOBAL| MM Potential file name                                     MM_POTENTIAL
 GLOBAL| Coordinate file name                                      __STD_INPUT__
 GLOBAL| Method name                                                        CP2K
 GLOBAL| Project name                                          H2O_GPW_gauxc_pbe
 GLOBAL| Run type                                                         ENERGY
 GLOBAL| FFT library                                                       FFTW3
 GLOBAL| Diagonalization library                                       ScaLAPACK
 GLOBAL| Cholesky decomposition library                                ScaLAPACK
 GLOBAL| DGEMM library                                                      BLAS
 GLOBAL| Direct generalized diagonalization requested                          F
 GLOBAL| Orthonormality check for eigenvectors                          DISABLED
 GLOBAL| Matrix multiplication library                                 ScaLAPACK
 GLOBAL| All-to-all communication in single precision                          F
 GLOBAL| FFTs using library dependent lengths                                  F
 GLOBAL| Grid backend                                                       AUTO
 GLOBAL| Global print level                                                  LOW
 GLOBAL| MPI I/O enabled                                                       T
 GLOBAL| Total number of message passing processes                             1
 GLOBAL| Number of distributed systems (nodes)                                 1
 GLOBAL| Number of threads for this process                                    1
 GLOBAL| This output is from process                                           0
 GLOBAL| OpenMP stack size per thread (OMP_STACKSIZE)                       512M
 GLOBAL| CPU model name                                                  UNKNOWN
 GLOBAL| CPUID                                                              2200
 GLOBAL| Compiled for CPUID                                                 2000

 *** HINT in environment.F:970 :: The compiler target flags (arm_arch64)   ***
 *** used to build this binary cannot exploit all extensions of this CPU   ***
 *** model (arm_sve256). Consider compiler target flags as part of FCFLAGS ***
 *** and CFLAGS (ARCH file).                                               ***


 MEMORY| system memory details [Kb]
 MEMORY|                        rank 0           min           max       average
 MEMORY| MemTotal            125508532     125508532     125508532     125508532
 MEMORY| MemFree              49200232      49200232      49200232      49200232
 MEMORY| Buffers               1405236       1405236       1405236       1405236
 MEMORY| Cached               63500156      63500156      63500156      63500156
 MEMORY| Slab                  3508072       3508072       3508072       3508072
 MEMORY| SReclaimable          2650884       2650884       2650884       2650884
 MEMORY| MemLikelyFree       116756508     116756508     116756508     116756508


 GENERATE|  Preliminary Number of Bonds generated:                             0
 GENERATE|  Achieved consistency in connectivity generation.

 *******************************************************************************
 *******************************************************************************
 **                                                                           **
 **     #####                         ##              ##                      **
 **    ##   ##            ##          ##              ##                      **
 **   ##     ##                       ##            ######                    **
 **   ##     ##  ##   ##  ##   #####  ##  ##   ####   ##    #####    #####    **
 **   ##     ##  ##   ##  ##  ##      ## ##   ##      ##   ##   ##  ##   ##   **
 **   ##  ## ##  ##   ##  ##  ##      ####     ###    ##   ######   ######    **
 **    ##  ###   ##   ##  ##  ##      ## ##      ##   ##   ##       ##        **
 **     #######   #####   ##   #####  ##  ##  ####    ##    #####   ##        **
 **           ##                                                    ##        **
 **                                                                           **
 **                                                ... make the atoms dance   **
 **                                                                           **
 **            Copyright (C) by CP2K developers group (2000-2026)             **
 **                      J. Chem. Phys. 152, 194103 (2020)                    **
 **                                                                           **
 *******************************************************************************


 TOTAL NUMBERS AND MAXIMUM NUMBERS

  Total number of            - Atomic kinds:                                   2
                             - Atoms:                                          3
                             - Shell sets:                                     3
                             - Shells:                                        21
                             - Primitive Cartesian functions:                 15
                             - Cartesian basis functions:                     64
                             - Spherical basis functions:                     57

  Maximum angular momentum of- Orbital basis functions:                        3
                             - Local part of the GTH pseudopotential:          2
                             - Non-local part of the GTH pseudopotential:      0


 SCF PARAMETERS         Density guess:                                    ATOMIC
                        --------------------------------------------------------
                        max_scf:                                             100
                        max_scf_history:                                       0
                        max_diis:                                              4
                        --------------------------------------------------------
                        eps_scf:                                        1.00E-08
                        eps_scf_history:                                0.00E+00
                        eps_diis:                                       1.00E-01
                        eps_eigval:                                     1.00E-05
                        --------------------------------------------------------
                        level_shift [a.u.]:                             0.000000
                        --------------------------------------------------------
                        Mixing method:                           DIRECT_P_MIXING
                        --------------------------------------------------------
                        No outer SCF

 Extrapolation method: initial_guess

 Number of electrons:                                                          8
 Number of occupied orbitals:                                                  4
 Number of molecular orbitals:                                                 4

 Number of orbital functions:                                                 57
 Number of independent orbital functions:                                     57


 SCF WAVEFUNCTION OPTIMIZATION

  Step     Update method      Time    Convergence         Total energy    Change
  ------------------------------------------------------------------------------
     1 P_Mix/Diag. 0.40E+00    2.0     0.65427485       -17.0499557135 -1.70E+01
     2 P_Mix/Diag. 0.40E+00    0.9     0.43604464       -17.1174825277 -6.75E-02
     3 P_Mix/Diag. 0.40E+00    1.0     0.25740416       -17.1590008569 -4.15E-02
     4 P_Mix/Diag. 0.40E+00    0.9     0.15446863       -17.1835532034 -2.46E-02
     5 P_Mix/Diag. 0.40E+00    0.9     0.09217538       -17.1981584272 -1.46E-02
     6 DIIS/Diag.  0.24E-02    0.9     0.05478380       -17.2068832214 -8.72E-03
     7 DIIS/Diag.  0.26E-03    0.9     0.00008474       -17.2199312335 -1.30E-02
     8 DIIS/Diag.  0.12E-03    0.9     0.00008444       -17.2199312448 -1.13E-08
     9 DIIS/Diag.  0.19E-03    0.9     0.00006901       -17.2199312420  2.83E-09
    10 DIIS/Diag.  0.12E-04    0.9     0.00000745       -17.2199312469 -4.86E-09
    11 DIIS/Diag.  0.11E-05    0.9     0.00000024       -17.2199312469 -3.25E-11
    12 DIIS/Diag.  0.90E-07    0.9     0.00000011       -17.2199312469 -1.78E-13
    13 DIIS/Diag.  0.14E-08    0.9     9.1003E-09       -17.2199312469 -1.42E-14

  *** SCF run converged in    13 steps ***


  Electronic density on regular grids:         -8.0000000000        0.0000000000
  Core density on regular grids:                7.9999999997       -0.0000000003
  Total charge density on r-space grids:       -0.0000000002
  Total charge density g-space grids:          -0.0000000002

  Overlap energy of the core charge distribution:               0.00000007166727
  Self energy of the core charge distribution:                -44.35427365113802
  Core Hamiltonian energy:                                     12.93045248510014
  Hartree energy:                                              18.43726460085262
  Exchange-correlation energy:                                 -4.23337475338243

  Total energy:                                               -17.21993124690043

 ENERGY| Total FORCE_EVAL ( QS ) energy [hartree]            -17.219931246900426

 -------------------------------------------------------------------------------
 -                                                                             -
 -                                DBCSR STATISTICS                             -
 -                                                                             -
 -------------------------------------------------------------------------------
 COUNTER                                    TOTAL       BLAS       SMM       ACC
 flops    29 x    14 x     4                42224       0.0%    100.0%      0.0%     
 flops    14 x    29 x     4                42224       0.0%    100.0%      0.0%     
 flops    14 x    14 x     4                61152       0.0%    100.0%      0.0%     
 flops    29 x    29 x     4                87464       0.0%    100.0%      0.0%     
 flops inhomo. stacks                           0       0.0%      0.0%      0.0%
 flops total                       233.064000E+03       0.0%    100.0%      0.0%
 flops max/rank                    233.064000E+03       0.0%    100.0%      0.0%
 matmuls inhomo. stacks                         0       0.0%      0.0%      0.0%
 matmuls total                                 78       0.0%    100.0%      0.0%
 number of processed stacks                    52       0.0%    100.0%      0.0%
 average stack size                                     0.0       1.5       0.0
 marketing flops                   337.896000E+03
 -------------------------------------------------------------------------------
 # multiplications                             13
 max memory usage/rank              33.938371E+09
 # max total images/rank                        1
 # max 3D layers                                1
 # MPI messages exchanged                       0
 -------------------------------------------------------------------------------
 -                                                                             -
 -                      DBCSR MESSAGE PASSING PERFORMANCE                      -
 -                                                                             -
 -------------------------------------------------------------------------------
 ROUTINE             CALLS      AVE VOLUME [Bytes]
 MP_Bcast                5                     12.
 MP_Allreduce           92                     13.
 MP_Alltoall           429                  12962.
 MP_ISend               52                     60.
 MP_IRecv               52                     60.
 -------------------------------------------------------------------------------

 -------------------------------------------------------------------------------
 -                                                                             -
 -                                GRID STATISTICS                              -
 -                                                                             -
 -------------------------------------------------------------------------------
 LP    KERNEL             BACKEND                              COUNT     PERCENT
 4     collocate ortho    CPU                                   1036      25.73%
 4     integrate ortho    CPU                                    962      23.89%
 5     collocate ortho    CPU                                    700      17.39%
 5     integrate ortho    CPU                                    650      16.15%
 6     collocate ortho    CPU                                    350       8.69%
 6     integrate ortho    CPU                                    325       8.07%
 0     collocate general  CPU                                      3       0.07%
 -------------------------------------------------------------------------------

 -------------------------------------------------------------------------------
 -                                                                             -
 -                          OFFLOAD MEMPOOL STATISTICS                         -
 -                                                                             -
 -------------------------------------------------------------------------------
 Memory consumption                Number of allocations  Used [MiB]  Size [MiB]
 Device                                                6          56          56
 Host                                                  6          56          56
 -------------------------------------------------------------------------------

 MEMORY| Estimated peak process memory [MiB]                                2824

 -------------------------------------------------------------------------------
 -                                                                             -
 -                         MESSAGE PASSING PERFORMANCE                         -
 -                                                                             -
 -------------------------------------------------------------------------------

 ROUTINE             CALLS      AVE VOLUME [Bytes]
 MP_Group                5
 MP_Bcast               26                    230.
 MP_Allreduce          182                   1864.
 MP_Sync                17
 MP_comm_split          13
 -------------------------------------------------------------------------------


 -------------------------------------------------------------------------------
 -                                                                             -
 -                           R E F E R E N C E S                               -
 -                                                                             -
 -------------------------------------------------------------------------------
 
 CP2K version 2026.1 (Development Version), the CP2K developers group (2026).
 CP2K is freely available from https://www.cp2k.org/ .
 
 M. Iannuzzi, J. Wilhelm, F. Stein, A. Bussy, H. Elgabarty, D. Golze, A. Hehn, 
 M. Graml, S. Marek, B. Sertcan Gökmen, C. Schran, H. Forbert, R. Z. 
 Khaliullin, A. Kozhevnikov, M. Taillefumier, R. Meli, V. V. Rybkin, M. Brehm, 
 R. Schade, O. Schütt, J. V. Pototschnig, H. Mirhosseini, A. Knüpfer, D. Marx, 
 M. Krack, J. Hutter, T. D. Kühne.
 J. Phys. Chem. B 130, 1237-1310 (2026).
 The CP2K Program Package Made Simple.
 https://doi.org/10.1021/acs.jpcb.5c05851

 T. D. Kühne, M. Iannuzzi, M. Del Ben, V. V. Rybkin, P. Seewald, F. Stein, T. 
 Laino, R. Z. Khaliullin, O. Schütt, F. Schiffmann, D. Golze, J. Wilhelm, S. 
 Chulkov, M. H. Bani-Hashemian, V. Weber, U. Borstnik, M. Taillefumier, A. S. 
 Jakobovits, A. Lazzaro, H. Pabst, T. Müller, R. Schade, M. Guidon, S. 
 Andermatt, N. Holmberg, G. K. Schenter, A. Hehn, A. Bussy, F. Belleflamme, G. 
 Tabacchi, A. Glöß, M. Lass, I. Bethune, C. J. Mundy, C. Plessl, M. Watkins, 
 J. VandeVondele, M. Krack, J. Hutter.
 J. Chem. Phys. 152, 194103 (2020).
 CP2K: An electronic structure and molecular dynamics software package - 
 Quickstep: Efficient and accurate electronic structure calculations.
 https://doi.org/10.1063/5.0007045

 O. Schuett, P. Messmer, J. Hutter, J. VandeVondele.
 Electronic Structure Calculations on Graphics Processing Units, 173-190 (2016).
 GPU-Accelerated Sparse Matrix-Matrix Multiplication for Linear Scaling Density 
 Functional Theory.
 https://doi.org/10.1002/9781118670712.ch8

 A. Heinecke, G. Henry, M. Hutchinson, H. Pabst.
 Proceedings of Intl. Supercomputing Conference, 981-991 (2016).
 LIBXSMM: Accelerating Small Matrix Multiplications by Runtime Code Generation.
 https://doi.org/10.1109/SC.2016.83

 U. Borstnik, J. VandeVondele, V. Weber, J. Hutter.
 Parallel Comput. 40, 47-58 (2014).
 Sparse matrix multiplication: The distributed block-compressed sparse row 
 library.
 https://doi.org/10.1016/j.parco.2014.03.012

 J. VandeVondele, J. Hutter.
 J. Chem. Phys. 127, 114105 (2007).
 Gaussian basis sets for accurate calculations on molecular systems in gas and 
 condensed phases.
 https://doi.org/10.1063/1.2770708

 J. VandeVondele, M. Krack, F. Mohamed, M. Parrinello, T. Chassaing, J. Hutter.
 Comput. Phys. Commun. 167, 103-128 (2005).
 QUICKSTEP: Fast and accurate density functional calculations using a mixed 
 Gaussian and plane waves approach.
 https://doi.org/10.1016/j.cpc.2004.12.014

 M. Krack.
 Theor. Chem. Acc. 114, 145-152 (2005).
 Pseudopotentials for H to Kr optimized for gradient-corrected 
 exchange-correlation functionals.
 https://doi.org/10.1007/s00214-005-0655-y

 M. Frigo, S. G. Johnson.
 Proc. IEEE 93, 216-231 (2005).
 The design and implementation of FFTW3.
 https://doi.org/10.1109/JPROC.2004.840301

 G. J. Martyna, M. E. Tuckerman.
 J. Chem. Phys. 110, 2810-2821 (1999).
 A reciprocal space based method for treating long range interactions in ab 
 initio and force-field-based calculations in clusters.
 https://doi.org/10.1063/1.477923

 C. Hartwigsen, S. Goedecker, J. Hutter.
 Phys. Rev. B 58, 3641-3662 (1998).
 Relativistic separable dual-space Gaussian pseudopotentials from H to Rn.
 https://doi.org/10.1103/PhysRevB.58.3641

 G. Lippert, J. Hutter, M. Parrinello.
 Mol. Phys. 92, 477-487 (1997).
 A hybrid Gaussian and plane wave density functional scheme.
 https://doi.org/10.1080/002689797170220

 S. Goedecker, M. Teter, J. Hutter.
 Phys. Rev. B 54, 1703-1710 (1996).
 Separable dual-space Gaussian pseudopotentials.
 https://doi.org/10.1103/PhysRevB.54.1703


 -------------------------------------------------------------------------------
 -                                                                             -
 -                                T I M I N G                                  -
 -                                                                             -
 -------------------------------------------------------------------------------
 SUBROUTINE                       CALLS  ASD         SELF TIME        TOTAL TIME
                                MAXIMUM       AVERAGE  MAXIMUM  AVERAGE  MAXIMUM
 CP2K                                 1  1.0    0.209    0.209   17.845   17.845
 qs_energies                          1  2.0    0.000    0.000   13.789   13.789
 scf_env_do_scf                       1  3.0    0.000    0.000   13.162   13.162
 scf_env_do_scf_inner_loop           13  4.0    0.001    0.001   13.162   13.162
 qs_ks_update_qs_env                 13  5.0    0.000    0.000    9.006    9.006
 rebuild_ks_matrix                   13  6.0    0.000    0.000    9.005    9.005
 qs_ks_build_kohn_sham_matrix        13  7.0    2.319    2.319    9.005    9.005
 fft_wrap_pw1pw2                    137  9.1    0.001    0.001    8.781    8.781
 fft_wrap_pw1pw2_300                 55  9.7    1.128    1.128    7.317    7.317
 qs_rho_update_rho_low               14  5.0    0.000    0.000    4.541    4.541
 calculate_rho_elec                  14  6.0    0.168    0.168    4.541    4.541
 density_rs2pw                       14  7.0    0.000    0.000    4.263    4.263
 fft3d_s                            138 11.1    4.123    4.123    4.127    4.127
 qs_init_subsys                       1  2.0    0.000    0.000    3.838    3.838
 qs_env_setup                         1  3.0    0.000    0.000    3.836    3.836
 qs_env_rebuild_pw_env                2  3.5    0.000    0.000    3.836    3.836
 pw_env_rebuild                       1  5.0    0.000    0.000    3.836    3.836
 pw_grid_setup                        5  6.0    0.000    0.000    3.835    3.835
 pw_grid_setup_internal               5  7.0    0.036    0.036    3.835    3.835
 pw_grid_sort                         5  8.0    2.826    2.826    3.418    3.418
 pw_poisson_solve                    13  8.0    0.000    0.000    2.601    2.601
 sum_up_and_integrate                13  8.0    0.000    0.000    2.445    2.445
 integrate_v_rspace                  13  9.0    0.000    0.000    2.445    2.445
 potential_pw2rs                     13 10.0    0.010    0.010    2.336    2.336
 pw_gather_s                         71 10.6    1.965    1.965    1.965    1.965
 pw_scatter_s                        66 11.8    1.237    1.237    1.237    1.237
 pw_poisson_rebuild                  13  9.0    0.035    0.035    1.227    1.227
 MTin_create_screen_fn                1 10.0    0.053    0.053    1.192    1.192
 fft_wrap_pw1pw2_600                  1 12.0    0.091    0.091    0.865    0.865
 pw_poisson_set                      14  8.8    0.000    0.000    0.692    0.692
 sort_shells                          5  9.0    0.593    0.593    0.593    0.593
 fft_wrap_pw1pw2_100                 27 10.4    0.012    0.012    0.527    0.527
 pw_copy                            130 10.0    0.514    0.514    0.514    0.514
 pw_integral_ab_c1d_c1d_gs           13  9.0    0.465    0.465    0.465    0.465
 pw_derive                           39 10.0    0.442    0.442    0.442    0.442
 init_scf_run                         1  3.0    0.000    0.000    0.404    0.404
 scf_env_initial_rho_setup            1  4.0    0.000    0.000    0.404    0.404
 pw_grid_assign                       5  8.0    0.380    0.380    0.380    0.380
 -------------------------------------------------------------------------------

 The number of warnings for this run is : 0
 
 -------------------------------------------------------------------------------
  **** **** ******  **  PROGRAM ENDED AT                 2026-05-30 14:42:51.760
 ***** ** ***  *** **   PROGRAM RAN ON                                spark-c86c
 **    ****   ******    PROGRAM RAN BY                                  kuehne88
 ***** **    ** ** **   PROGRAM PROCESS ID                                136467
  **** **  *******  **  PROGRAM STOPPED IN /home/kuehne88/molecular-skala-final-
                                           20260530-prhead/skala-molopt-bench/ru
                                           ns/H2O_GPW_gauxc_pbe_force_minus
