&GLOBAL
  PRINT_LEVEL MEDIUM
  PROJECT_NAME 2db7af39aae0385fec4f9c14bed6ed4ccce6a166
  RUN_TYPE ENERGY
&END GLOBAL
&FORCE_EVAL
  METHOD Quickstep
  &DFT
    BASIS_SET_FILE_NAME BASIS_MOLOPT_UZH
    POTENTIAL_FILE_NAME POTENTIAL_UZH
    CHARGE 0
    MULTIPLICITY 3
    UKS TRUE
    &MGRID
      CUTOFF 1000
      REL_CUTOFF 60
      NGRIDS 4
    &END MGRID
    &POISSON
      PERIODIC NONE
      POISSON_SOLVER ANALYTIC
    &END POISSON
    &QS
      EPS_DEFAULT 1e-10
    &END QS
    &SCF
      EPS_SCF 1e-05
      MAX_SCF 100
      SCF_GUESS ATOMIC
      &DIAGONALIZATION
      &END DIAGONALIZATION
      &MIXING
        METHOD DIRECT_P_MIXING
        ALPHA 0.4
        NMIXING 2
      &END MIXING
    &END SCF
    &XC
      &XC_FUNCTIONAL
        &GAUXC
          FUNCTIONAL PBE
          MODEL aug-s0-funv2-cpu.fun
          GRID FINE
          PRUNING_SCHEME ROBUST
          RADIAL_QUADRATURE MURAKNOWLES
        &END GAUXC
      &END XC_FUNCTIONAL
    &END XC
    &PRINT
      &MO
        ENERGIES T
        OCCNUMS  T
        &EACH
          QS_SCF 0
        &END
      &END
    &END
  &END DFT
  &SUBSYS
    &CELL
      ABC 30.0000 30.0000 30.0000
      ALPHA_BETA_GAMMA 90.0000 90.0000 90.0000
      PERIODIC NONE
    &END CELL
    &TOPOLOGY
      &CENTER_COORDINATES
      &END
    &END TOPOLOGY
    &COORD
      S        0.0000000000        0.0000000000        0.0000000000
    &END COORD
    &KIND S
      BASIS_SET TZVP-MOLOPT-SCAN-GTH-q6
      POTENTIAL GTH-SCAN-q6
    &END KIND
  &END SUBSYS
&END FORCE_EVAL

================================================================================
=== END OF CP2K INPUT / START OF CP2K OUTPUT ===
================================================================================

 DBCSR| CPU Multiplication driver                                           BLAS (U)
 DBCSR| Multrec recursion limit                                              512 (U)
 DBCSR| Multiplication stack size                                           1000 (D)
 DBCSR| Maximum elements for images                                    UNLIMITED (U)
 DBCSR| Multiplicative factor virtual images                                   1 (U)
 DBCSR| Use multiplication densification                                       T (D)
 DBCSR| Multiplication size stacks                                             3 (U)
 DBCSR| Use memory pool for CPU allocation                                     F (U)
 DBCSR| Number of 3D layers                                               SINGLE (U)
 DBCSR| Use MPI memory allocation                                              F (U)
 DBCSR| Use RMA algorithm                                                      F (U)
 DBCSR| Use Communication thread                                               T (U)
 DBCSR| Communication thread load                                             87 (D)
 DBCSR| MPI: My process id                                                     0
 DBCSR| MPI: Number of processes                                              16
 DBCSR| OMP: Current number of threads                                         1
 DBCSR| OMP: Max number of threads                                             1
 DBCSR| Split modifier for TAS multiplication algorithm                  1.0E+00 (U)


  **** **** ******  **  PROGRAM STARTED AT               2026-08-13 13:00:50.544
 ***** ** ***  *** **   PROGRAM STARTED ON        eb3791e2ef3243b6944400b65b9622
 **    ****   ******    PROGRAM STARTED BY                             <unknown>
 ***** **    ** ** **   PROGRAM PROCESS ID                                   954
  **** **  *******  **  PROGRAM STARTED IN                    /tmp/cp2k_aj51zoe0

 CP2K| version string:                                       CP2K version 2026.2
 CP2K| source code revision number:                                  git:c92cc08
 CP2K| cp2kflags: omp libint fftw3 libxc gauxc gauxc_mpi gauxc_onedft gauxc_host
 CP2K|             parallel scalapack mpi_f08 spglib sirius libtorch hdf5
 CP2K| is freely available from                            https://www.cp2k.org/
 CP2K| Program compiled at                                   2026-08-13 02:05:42
 CP2K| Program compiled on                                                      
 CP2K| Program compiled for                                               x86_64
 CP2K| Data directory path                             /opt/cp2k/share/cp2k/data
 CP2K| Input file name                                            cp2k_input.inp

 GLOBAL| Force Environment number                                              1
 GLOBAL| Basis set file name                                    BASIS_MOLOPT_UZH
 GLOBAL| Potential file name                                       POTENTIAL_UZH
 GLOBAL| MM Potential file name                                     MM_POTENTIAL
 GLOBAL| Coordinate file name                                      __STD_INPUT__
 GLOBAL| Method name                                                        CP2K
 GLOBAL| Project name                   2db7af39aae0385fec4f9c14bed6ed4ccce6a166
 GLOBAL| Run type                                                         ENERGY
 GLOBAL| FFT library                                                       FFTW3
 GLOBAL| Diagonalization library                                       ScaLAPACK
 GLOBAL| Cholesky decomposition library                                ScaLAPACK
 GLOBAL| DGEMM library                                                      BLAS
 GLOBAL| Direct generalized diagonalization requested                          F
 GLOBAL| Orthonormality check for eigenvectors                          DISABLED
 GLOBAL| Matrix multiplication library                                 ScaLAPACK
 GLOBAL| All-to-all communication in single precision                          F
 GLOBAL| FFTs using library dependent lengths                                  F
 GLOBAL| Grid backend                                                       AUTO
 GLOBAL| Global print level                                               MEDIUM
 GLOBAL| MPI I/O enabled                                                       T
 GLOBAL| Total number of message passing processes                            16
 GLOBAL| Number of distributed systems (nodes)                                 1
 GLOBAL| Number of threads for this process                                    1
 GLOBAL| This output is from process                                           0
 GLOBAL| OpenMP stack size per thread (OMP_STACKSIZE)                        16M
 GLOBAL| CPU model name                          AMD EPYC 9V74 80-Core Processor
 GLOBAL| CPUID                                                              1002

 MEMORY| system memory details [Kb]
 MEMORY|                        rank 0           min           max       average
 MEMORY| MemTotal            263924020     263924020     263924020     263924020
 MEMORY| MemFree             235873032     235873032     235873032     235873032
 MEMORY| Buffers                405212        405212        405212        405212
 MEMORY| Cached               19197700      19197700      19197700      19197700
 MEMORY| Slab                  2019292       2019292       2019292       2019292
 MEMORY| SReclaimable          1628600       1628600       1628600       1628600
 MEMORY| MemLikelyFree       257104544     257104544     257104544     257104544


 *** Fundamental physical constants (SI units) ***

 *** Literature: B. J. Mohr and B. N. Taylor,
 ***             CODATA recommended values of the fundamental physical
 ***             constants: 2006, Web Version 5.1
 ***             http://physics.nist.gov/constants

 Speed of light in vacuum [m/s]                             2.99792458000000E+08
 Magnetic constant or permeability of vacuum [N/A**2]       1.25663706143592E-06
 Electric constant or permittivity of vacuum [F/m]          8.85418781762039E-12
 Planck constant (h) [J*s]                                  6.62606896000000E-34
 Planck constant (h-bar) [J*s]                              1.05457162825177E-34
 Elementary charge [C]                                      1.60217648700000E-19
 Electron mass [kg]                                         9.10938215000000E-31
 Electron g factor [ ]                                     -2.00231930436220E+00
 Proton mass [kg]                                           1.67262163700000E-27
 Fine-structure constant                                    7.29735253760000E-03
 Rydberg constant [1/m]                                     1.09737315685270E+07
 Avogadro constant [1/mol]                                  6.02214179000000E+23
 Boltzmann constant [J/K]                                   1.38065040000000E-23
 Atomic mass unit [kg]                                      1.66053878200000E-27
 Bohr radius [m]                                            5.29177208590000E-11

 *** Conversion factors ***

 [u] -> [a.u.]                                              1.82288848426455E+03
 [Angstrom] -> [Bohr] = [a.u.]                              1.88972613288564E+00
 [a.u.] = [Bohr] -> [Angstrom]                              5.29177208590000E-01
 [a.u.] -> [s]                                              2.41888432650478E-17
 [a.u.] -> [fs]                                             2.41888432650478E-02
 [a.u.] -> [J]                                              4.35974393937059E-18
 [a.u.] -> [N]                                              8.23872205491840E-08
 [a.u.] -> [K]                                              3.15774647902944E+05
 [a.u.] -> [kJ/mol]                                         2.62549961709828E+03
 [a.u.] -> [kcal/mol]                                       6.27509468713739E+02
 [a.u.] -> [Pa]                                             2.94210107994716E+13
 [a.u.] -> [bar]                                            2.94210107994716E+08
 [a.u.] -> [atm]                                            2.90362800883016E+08
 [a.u.] -> [eV]                                             2.72113838565563E+01
 [a.u.] -> [Hz]                                             6.57968392072181E+15
 [a.u.] -> [1/cm] (wave numbers)                            2.19474631370540E+05
 [a.u./Bohr**2] -> [1/cm]                                   5.14048714338585E+03
 

 CELL| Volume [angstrom^3]:                                         27000.000000
 CELL| Vector a [angstrom]:      30.000     0.000     0.000   |a| =    30.000000
 CELL| Vector b [angstrom]:       0.000    30.000     0.000   |b| =    30.000000
 CELL| Vector c [angstrom]:       0.000     0.000    30.000   |c| =    30.000000
 CELL| Angle (b,c), alpha [degree]:                                    90.000000
 CELL| Angle (a,c), beta  [degree]:                                    90.000000
 CELL| Angle (a,b), gamma [degree]:                                    90.000000
 CELL| Numerically orthorhombic:                                             YES
 CELL| Periodicity                                                          NONE

 CELL_REF| Volume [angstrom^3]:                                     27000.000000
 CELL_REF| Vector a [angstrom    30.000     0.000     0.000   |a| =    30.000000
 CELL_REF| Vector b [angstrom     0.000    30.000     0.000   |b| =    30.000000
 CELL_REF| Vector c [angstrom     0.000     0.000    30.000   |c| =    30.000000
 CELL_REF| Angle (b,c), alpha [degree]:                                90.000000
 CELL_REF| Angle (a,c), beta  [degree]:                                90.000000
 CELL_REF| Angle (a,b), gamma [degree]:                                90.000000
 CELL_REF| Numerically orthorhombic:                                         YES
 CELL_REF| Periodicity                                                      NONE

 GENERATE|  Preliminary Number of Bonds generated:                             0
 GENERATE|  Achieved consistency in connectivity generation.

 *******************************************************************************
 *******************************************************************************
 **                                                                           **
 **     #####                         ##              ##                      **
 **    ##   ##            ##          ##              ##                      **
 **   ##     ##                       ##            ######                    **
 **   ##     ##  ##   ##  ##   #####  ##  ##   ####   ##    #####    #####    **
 **   ##     ##  ##   ##  ##  ##      ## ##   ##      ##   ##   ##  ##   ##   **
 **   ##  ## ##  ##   ##  ##  ##      ####     ###    ##   ######   ######    **
 **    ##  ###   ##   ##  ##  ##      ## ##      ##   ##   ##       ##        **
 **     #######   #####   ##   #####  ##  ##  ####    ##    #####   ##        **
 **           ##                                                    ##        **
 **                                                                           **
 **                                                ... make the atoms dance   **
 **                                                                           **
 **            Copyright (C) by CP2K developers group (2000-2026)             **
 **                      J. Chem. Phys. 152, 194103 (2020)                    **
 **                                                                           **
 *******************************************************************************

 DFT| Spin unrestricted (spin-polarized) Kohn-Sham calculation               UKS
 DFT| Multiplicity                                                             3
 DFT| Number of spin states                                                    2
 DFT| Charge                                                                   0
 DFT| Self-interaction correction (SIC)                                       NO
 DFT| Cutoffs: density                                              1.000000E-10
 DFT|          gradient                                             1.000000E-10
 DFT|          tau                                                  1.000000E-10
 DFT|          cutoff_smoothing_range                               0.000000E+00
 DFT| XC density smoothing                                                  NONE
 DFT| XC derivatives                                                          PW

 FUNCTIONAL| GAUXC:
 FUNCTIONAL| Functional computed by GauXC Skala model aug-s0-funv2-cpu.fun      


 QS| Method:                                                                 GPW
 QS| Density plane wave grid type                        NON-SPHERICAL FULLSPACE
 QS| Number of grid levels:                                                    4
 QS| Density cutoff [a.u.]:                                                500.0
 QS| Multi grid cutoff [a.u.]: 1) grid level                               500.0
 QS|                           2) grid level                               166.7
 QS|                           3) grid level                                55.6
 QS|                           4) grid level                                18.5
 QS| Grid level progression factor:                                          3.0
 QS| Relative density cutoff [a.u.]:                                        30.0
 QS| Interaction thresholds: eps_pgf_orb:                                1.0E-05
 QS|                         eps_filter_matrix:                          0.0E+00
 QS|                         eps_core_charge:                            1.0E-12
 QS|                         eps_rho_gspace:                             1.0E-10
 QS|                         eps_rho_rspace:                             1.0E-10
 QS|                         eps_gvg_rspace:                             1.0E-05
 QS|                         eps_ppl:                                    1.0E-02
 QS|                         eps_ppnl:                                   1.0E-07


 ATOMIC KIND INFORMATION

  1. Atomic kind: S                                     Number of atoms:       1

     Orbital Basis Set                                   TZVP-MOLOPT-SCAN-GTH-q6

       Number of orbital shell sets:                                           1
       Number of orbital shells:                                               7
       Number of primitive Cartesian functions:                                4
       Number of Cartesian basis functions:                                   18
       Number of spherical basis functions:                                   17
       Norm type:                                                              2

       Normalised Cartesian orbitals:

                        Set   Shell   Orbital            Exponent    Coefficient

                          1       1    2s                1.889826       0.323702
                                                         1.158002      -0.054207
                                                         0.373252      -0.217234
                                                         0.124185      -0.074944

                          1       2    3s                1.889826      -0.326795
                                                         1.158002      -0.214585
                                                         0.373252       0.398837
                                                         0.124185      -0.240192

                          1       3    4s                1.889826       0.328472
                                                         1.158002      -1.132658
                                                         0.373252       0.028186
                                                         0.124185       0.036991

                          1       4    3px               1.889826       0.514693
                                                         1.158002      -0.474413
                                                         0.373252      -0.272742
                                                         0.124185      -0.032183
                          1       4    3py               1.889826       0.514693
                                                         1.158002      -0.474413
                                                         0.373252      -0.272742
                                                         0.124185      -0.032183
                          1       4    3pz               1.889826       0.514693
                                                         1.158002      -0.474413
                                                         0.373252      -0.272742
                                                         0.124185      -0.032183

                          1       5    4px               1.889826       0.570641
                                                         1.158002      -0.401878
                                                         0.373252      -0.185604
                                                         0.124185       0.132849
                          1       5    4py               1.889826       0.570641
                                                         1.158002      -0.401878
                                                         0.373252      -0.185604
                                                         0.124185       0.132849
                          1       5    4pz               1.889826       0.570641
                                                         1.158002      -0.401878
                                                         0.373252      -0.185604
                                                         0.124185       0.132849

                          1       6    5px               1.889826      -2.555913
                                                         1.158002      -0.188090
                                                         0.373252      -0.071097
                                                         0.124185       0.003667
                          1       6    5py               1.889826      -2.555913
                                                         1.158002      -0.188090
                                                         0.373252      -0.071097
                                                         0.124185       0.003667
                          1       6    5pz               1.889826      -2.555913
                                                         1.158002      -0.188090
                                                         0.373252      -0.071097
                                                         0.124185       0.003667

                          1       7    4dx2              1.889826       0.326281
                                                         1.158002       0.580902
                                                         0.373252       0.199583
                                                         0.124185       0.007004
                          1       7    4dxy              1.889826       0.565136
                                                         1.158002       1.006151
                                                         0.373252       0.345688
                                                         0.124185       0.012131
                          1       7    4dxz              1.889826       0.565136
                                                         1.158002       1.006151
                                                         0.373252       0.345688
                                                         0.124185       0.012131
                          1       7    4dy2              1.889826       0.326281
                                                         1.158002       0.580902
                                                         0.373252       0.199583
                                                         0.124185       0.007004
                          1       7    4dyz              1.889826       0.565136
                                                         1.158002       1.006151
                                                         0.373252       0.345688
                                                         0.124185       0.012131
                          1       7    4dz2              1.889826       0.326281
                                                         1.158002       0.580902
                                                         0.373252       0.199583
                                                         0.124185       0.007004

       Atomic covalent radius [Angstrom]:                                  1.020

       Atomic van der Waals radius [Angstrom]:                             1.800

     GTH Potential information for                                   GTH-SCAN-q6

       Description:                       Goedecker-Teter-Hutter pseudopotential
                                           Goedecker et al., PRB 54, 1703 (1996)
                                          Hartwigsen et al., PRB 58, 3641 (1998)
                                                      Krack, TCA 114, 145 (2005)

       Gaussian exponent of the core charge distribution:               2.942366
       Electronic configuration (s p d ...):                       2   4   0   0

       Parameters of the local part of the GTH pseudopotential:

                          rloc        C1          C2          C3          C4
                        0.412227   -5.962127

       Parameters of the non-local part of the GTH pseudopotential:

                   l      r(l)      h(i,j,l)

                   0    0.364381   13.137278   -4.241829
                                   -4.241829    5.472888
                   1    0.407230    3.707938


 MOLECULE KIND INFORMATION


 All atoms are their own molecule, skipping detailed information


 TOTAL NUMBERS AND MAXIMUM NUMBERS

  Total number of            - Atomic kinds:                                   1
                             - Atoms:                                          1
                             - Shell sets:                                     1
                             - Shells:                                         7
                             - Primitive Cartesian functions:                  4
                             - Cartesian basis functions:                     18
                             - Spherical basis functions:                     17

  Maximum angular momentum of- Orbital basis functions:                        2
                             - Local part of the GTH pseudopotential:          0
                             - Non-local part of the GTH pseudopotential:      2


 MODULE QUICKSTEP: ATOMIC COORDINATES IN ANGSTROM

   Atom Kind Element         X             Y             Z       Z(eff)     Mass
      1    1 S    16     15.000000     15.000000     15.000000   6.0000  32.0650



 SCF PARAMETERS         Density guess:                                    ATOMIC
                        --------------------------------------------------------
                        max_scf:                                             100
                        max_scf_history:                                       0
                        max_diis:                                              4
                        --------------------------------------------------------
                        eps_scf:                                        1.00E-05
                        eps_scf_history:                                0.00E+00
                        eps_diis:                                       1.00E-01
                        eps_eigval:                                     1.00E-05
                        --------------------------------------------------------
                        level_shift [a.u.]:                             0.000000
                        --------------------------------------------------------
                        Mixing method:                           DIRECT_P_MIXING
                        --------------------------------------------------------
                        No outer SCF

 PW_GRID| Information for grid number                                          1
 PW_GRID| Grid distributed over                                    16 processors
 PW_GRID| Real space group dimensions                                    16    1
 PW_GRID| the grid is blocked:                                                NO
 PW_GRID| Cutoff [a.u.]                                                    500.0
 PW_GRID| spherical cutoff:                                                   NO
 PW_GRID|   Bounds   1           -288     287                Points:         576
 PW_GRID|   Bounds   2           -288     287                Points:         576
 PW_GRID|   Bounds   3           -288     287                Points:         576
 PW_GRID| Volume element (a.u.^3)  0.9534E-03     Volume (a.u.^3)    182205.0337
 PW_GRID| Grid span                                                    FULLSPACE
 PW_GRID|   Distribution                         Average         Max         Min
 PW_GRID|   G-Vectors                         11943936.0    11943936    11943936
 PW_GRID|   G-Rays                               20736.0       20736       20736
 PW_GRID|   Real Space Points                 11943936.0    11943936    11943936

 PW_GRID| Information for grid number                                          2
 PW_GRID| Number of the reference grid                                         1
 PW_GRID| Grid distributed over                                    16 processors
 PW_GRID| Real space group dimensions                                    16    1
 PW_GRID| the grid is blocked:                                                NO
 PW_GRID| Cutoff [a.u.]                                                    166.7
 PW_GRID| spherical cutoff:                                                   NO
 PW_GRID|   Bounds   1           -180     179                Points:         360
 PW_GRID|   Bounds   2           -180     179                Points:         360
 PW_GRID|   Bounds   3           -180     179                Points:         360
 PW_GRID| Volume element (a.u.^3)  0.3905E-02     Volume (a.u.^3)    182205.0337
 PW_GRID| Grid span                                                    FULLSPACE
 PW_GRID|   Distribution                         Average         Max         Min
 PW_GRID|   G-Vectors                          2916000.0     2916720     2915640
 PW_GRID|   G-Rays                                8100.0        8102        8099
 PW_GRID|   Real Space Points                  2916000.0     2980800     2851200

 PW_GRID| Information for grid number                                          3
 PW_GRID| Number of the reference grid                                         1
 PW_GRID| Grid distributed over                                    16 processors
 PW_GRID| Real space group dimensions                                    16    1
 PW_GRID| the grid is blocked:                                                NO
 PW_GRID| Cutoff [a.u.]                                                     55.6
 PW_GRID| spherical cutoff:                                                   NO
 PW_GRID|   Bounds   1            -96      95                Points:         192
 PW_GRID|   Bounds   2            -96      95                Points:         192
 PW_GRID|   Bounds   3            -96      95                Points:         192
 PW_GRID| Volume element (a.u.^3)  0.2574E-01     Volume (a.u.^3)    182205.0337
 PW_GRID| Grid span                                                    FULLSPACE
 PW_GRID|   Distribution                         Average         Max         Min
 PW_GRID|   G-Vectors                           442368.0      442560      442176
 PW_GRID|   G-Rays                                2304.0        2305        2303
 PW_GRID|   Real Space Points                   442368.0      442368      442368

 PW_GRID| Information for grid number                                          4
 PW_GRID| Number of the reference grid                                         1
 PW_GRID| Grid distributed over                                    16 processors
 PW_GRID| Real space group dimensions                                    16    1
 PW_GRID| the grid is blocked:                                                NO
 PW_GRID| Cutoff [a.u.]                                                     18.5
 PW_GRID| spherical cutoff:                                                   NO
 PW_GRID|   Bounds   1            -60      59                Points:         120
 PW_GRID|   Bounds   2            -60      59                Points:         120
 PW_GRID|   Bounds   3            -60      59                Points:         120
 PW_GRID| Volume element (a.u.^3)  0.1054         Volume (a.u.^3)    182205.0337
 PW_GRID| Grid span                                                    FULLSPACE
 PW_GRID|   Distribution                         Average         Max         Min
 PW_GRID|   G-Vectors                           108000.0      108240      107880
 PW_GRID|   G-Rays                                 900.0         902         899
 PW_GRID|   Real Space Points                   108000.0      115200      100800

 POISSON| Solver                                                        ANALYTIC
 POISSON| Periodicity                                                       NONE

 RS_GRID| Information for grid number                                          1
 RS_GRID|   Bounds   1           -288     287                Points:         576
 RS_GRID|   Bounds   2           -288     287                Points:         576
 RS_GRID|   Bounds   3           -288     287                Points:         576
 RS_GRID| Real space distribution over                                  4 groups
 RS_GRID| Real space distribution along direction                              2
 RS_GRID| Border size                                                         32
 RS_GRID| Real space distribution over                                  4 groups
 RS_GRID| Real space distribution along direction                              3
 RS_GRID| Border size                                                         32
 RS_GRID|   Distribution                         Average         Max         Min
 RS_GRID|   Planes                                 208.0         208         208
 RS_GRID|   Distribution                         Average         Max         Min
 RS_GRID|   Planes                                 208.0         208         208

 RS_GRID| Information for grid number                                          2
 RS_GRID|   Bounds   1           -180     179                Points:         360
 RS_GRID|   Bounds   2           -180     179                Points:         360
 RS_GRID|   Bounds   3           -180     179                Points:         360
 RS_GRID| Real space distribution over                                  4 groups
 RS_GRID| Real space distribution along direction                              2
 RS_GRID| Border size                                                         27
 RS_GRID| Real space distribution over                                  4 groups
 RS_GRID| Real space distribution along direction                              3
 RS_GRID| Border size                                                         27
 RS_GRID|   Distribution                         Average         Max         Min
 RS_GRID|   Planes                                 144.0         144         144
 RS_GRID|   Distribution                         Average         Max         Min
 RS_GRID|   Planes                                 144.0         144         144

 RS_GRID| Information for grid number                                          3
 RS_GRID|   Bounds   1            -96      95                Points:         192
 RS_GRID|   Bounds   2            -96      95                Points:         192
 RS_GRID|   Bounds   3            -96      95                Points:         192
 RS_GRID| Real space fully replicated
 RS_GRID| Group size                                                           1

 RS_GRID| Information for grid number                                          4
 RS_GRID|   Bounds   1            -60      59                Points:         120
 RS_GRID|   Bounds   2            -60      59                Points:         120
 RS_GRID|   Bounds   3            -60      59                Points:         120
 RS_GRID| Real space fully replicated
 RS_GRID| Group size                                                           1

 Extrapolation method: initial_guess

 Atomic guess: The first density matrix is obtained in terms of atomic orbitals
               and electronic configurations assigned to each atomic kind

 Guess for atomic kind: S

 Electronic structure
    Total number of core electrons                                         10.00
    Total number of valence electrons                                       6.00
    Total number of electrons                                              16.00
    Multiplicity                                                   not specified
    S   [  2.00  2.00] 2.00
    P   [  6.00] 4.00


 *******************************************************************************
                  Iteration          Convergence                     Energy [au]
 *******************************************************************************
                          1        0.517281E-01                  -9.953513119181
                          2        0.301698E-01                  -9.953845851198
                          3        0.153815E-02                  -9.954138930905
                          4        0.812609E-06                  -9.954139704176

 Energy components [Hartree]           Total Energy ::           -9.954139704176
                                        Band Energy ::           -2.160464965724
                                     Kinetic Energy ::            3.762183505610
                                   Potential Energy ::          -13.716323209786
                                      Virial (-V/T) ::            3.645841089179
                                        Core Energy ::          -16.327219873503
                                          XC Energy ::           -2.047560792284
                                     Coulomb Energy ::            8.420640961611
                       Total Pseudopotential Energy ::          -20.147338690005
                       Local Pseudopotential Energy ::          -22.254928943408
                    Nonlocal Pseudopotential Energy ::            2.107590253403
                                        Confinement ::            0.579353108917

 Orbital energies  State     L     Occupation   Energy[a.u.]          Energy[eV]

                       1     0          2.000      -0.607311          -16.525765

                       1     1          4.000      -0.236461           -6.434428


 Total Electron Density at R=0:                                         0.000185

 Spin 1
 Re-scaling the density matrix to get the right number of electrons for spin 1
                  # Electrons              Trace(P)               Scaling factor
                            4                 3.000                        1.333

 Spin 2
 Re-scaling the density matrix to get the right number of electrons for spin 2
                  # Electrons              Trace(P)               Scaling factor
                            2                 3.000                        0.667

 Spin 1

 Number of electrons:                                                          4
 Number of occupied orbitals:                                                  4
 Number of molecular orbitals:                                                 4

 Spin 2

 Number of electrons:                                                          2
 Number of occupied orbitals:                                                  2
 Number of molecular orbitals:                                                 2

 Number of orbital functions:                                                 17
 Number of independent orbital functions:                                     17


 SCF WAVEFUNCTION OPTIMIZATION

  Step     Update method      Time    Convergence         Total energy    Change
  ------------------------------------------------------------------------------
     1 P_Mix/Diag. 0.40E+00    9.9     0.43897230       -10.0889457281 -1.01E+01
     2 P_Mix/Diag. 0.40E+00   16.8     0.27011059       -10.0889645318 -1.88E-05
     3 P_Mix/Diag. 0.40E+00   16.7     0.19212946       -10.0937666786 -4.80E-03
     4 P_Mix/Diag. 0.40E+00   16.7     0.10638646       -10.0988531220 -5.09E-03
     5 P_Mix/Diag. 0.40E+00   16.7     0.05701851       -10.1021579485 -3.30E-03
     6 DIIS/Diag.  0.49E-02   16.6     0.02985247       -10.1042598523 -2.10E-03
     7 DIIS/Diag.  0.63E-02   16.6     0.00088455       -10.1075272397 -3.27E-03
     8 DIIS/Diag.  0.85E-02   16.6     0.00784419       -10.1075187760  8.46E-06
     9 DIIS/Diag.  0.45E-02   16.6     0.00340009       -10.1075296389 -1.09E-05
    10 DIIS/Diag.  0.61E-03   16.6     0.00055030       -10.1075418117 -1.22E-05
    11 DIIS/Diag.  0.37E-04   16.7     0.00014579       -10.1075420480 -2.36E-07
    12 DIIS/Diag.  0.26E-04   16.6     0.00015474       -10.1075420534 -5.48E-09
    13 DIIS/Diag.  0.25E-04   16.7     0.00022463       -10.1075420563 -2.85E-09
    14 DIIS/Diag.  0.23E-04   16.6     0.00102035       -10.1075420635 -7.18E-09
    15 DIIS/Diag.  0.16E-04   16.8     0.00164977       -10.1075420850 -2.15E-08
    16 DIIS/Diag.  0.70E-05   16.7     0.00021849       -10.1075421045 -1.95E-08
    17 DIIS/Diag.  0.66E-05   16.7     0.00020456       -10.1075421041  4.07E-10
    18 DIIS/Diag.  0.68E-05   16.6     0.00022172       -10.1075421054 -1.29E-09
    19 DIIS/Diag.  0.66E-05   16.6     0.00007914       -10.1075421045  8.54E-10
    20 DIIS/Diag.  0.65E-05   16.6     0.00022325       -10.1075421070 -2.48E-09
    21 DIIS/Diag.  0.61E-05   16.8     0.00070007       -10.1075421087 -1.63E-09
    22 DIIS/Diag.  0.48E-05   16.6     0.00066859       -10.1075421105 -1.81E-09
    23 DIIS/Diag.  0.35E-05   16.7     0.00058957       -10.1075421133 -2.85E-09
    24 DIIS/Diag.  0.24E-05   16.8     0.00077730       -10.1075421151 -1.76E-09
    25 DIIS/Diag.  0.20E-05   16.6     0.00039216       -10.1075421148  2.85E-10
    26 DIIS/Diag.  0.16E-05   16.7     0.00032650       -10.1075421155 -7.20E-10
    27 DIIS/Diag.  0.14E-05   16.7     0.00002277       -10.1075421150  4.66E-10
    28 DIIS/Diag.  0.12E-05   16.6     0.00009610       -10.1075421149  1.11E-10
    29 DIIS/Diag.  0.11E-05   16.7     0.00006440       -10.1075421149  4.76E-12
    30 DIIS/Diag.  0.11E-05   16.6     0.00011461       -10.1075421154 -4.68E-10
    31 DIIS/Diag.  0.77E-06   16.6     0.00005412       -10.1075421163 -9.04E-10
    32 DIIS/Diag.  0.83E-06   16.7     0.00003074       -10.1075421140  2.29E-09
    33 DIIS/Diag.  0.88E-06   16.8     0.00000268       -10.1075421171 -3.05E-09

  *** SCF run converged in    33 steps ***


  Electronic density on regular grids:         -6.0000000000        0.0000000000
  Core density on regular grids:                5.9999999994       -0.0000000006
  Total charge density on r-space grids:       -0.0000000006
  Total charge density g-space grids:          -0.0000000006

  Overlap energy of the core charge distribution:               0.00000000000000
  Self energy of the core charge distribution:                -24.63547513827919
  Core Hamiltonian energy:                                      5.32970809233918
  Hartree energy:                                              11.36912234357987
  Exchange-correlation energy:                                 -2.17089741469066

  Total energy:                                               -10.10754211705080

 MO| ALPHA EIGENVALUES AND OCCUPATION NUMBERS
 MO|
 MO|  Index      Eigenvalue [a.u.]        Eigenvalue [eV]             Occupation
 MO|      1              -0.699713             -19.040166               1.000000
 MO|      2              -0.310986              -8.462369               1.000000
 MO|      3              -0.310982              -8.462249               1.000000
 MO|      4              -0.267844              -7.288416               1.000000
 MO| Sum:                                                               4.000000
 MO| E(Fermi):           -0.267844 a.u.         -7.288416 eV


 MO| BETA EIGENVALUES AND OCCUPATION NUMBERS
 MO|
 MO|  Index      Eigenvalue [a.u.]        Eigenvalue [eV]             Occupation
 MO|      1              -0.592327             -16.118036               1.000000
 MO|      2              -0.232264              -6.320233               1.000000
 MO| Sum:                                                               2.000000
 MO| E(Fermi):           -0.232264 a.u.         -6.320233 eV


  Integrated spin density:                                          2.0000000000
  Integrated absolute spin density:                                 2.0164911909
  Ideal and single determinant S**2 :                    2.000000       2.006056

 !-----------------------------------------------------------------------------!
                     Mulliken Population Analysis

 #  Atom  Element  Kind  Atomic population (alpha,beta) Net charge  Spin moment
       1     S        1         4.000000     2.000000    -0.000000     2.000000
 # Total charge and spin        4.000000     2.000000    -0.000000     2.000000

 !-----------------------------------------------------------------------------!

 !-----------------------------------------------------------------------------!
                           Hirshfeld Charges

  #Atom  Element  Kind  Ref Charge     Population       Spin moment  Net charge
      1       S      1       6.000    4.000   2.000            2.000      0.000

  Total Charge                                                            0.000
 !-----------------------------------------------------------------------------!

 ENERGY| Total FORCE_EVAL ( QS ) energy [hartree]            -10.107542117050798

 -------------------------------------------------------------------------------
 -                                                                             -
 -                                DBCSR STATISTICS                             -
 -                                                                             -
 -------------------------------------------------------------------------------
 COUNTER                                    TOTAL       BLAS       SMM       ACC
 flops    17 x     2 x    17                 1156     100.0%      0.0%      0.0%     
 flops    17 x    17 x     2                38148     100.0%      0.0%      0.0%     
 flops    17 x    17 x     4                76296     100.0%      0.0%      0.0%     
 flops inhomo. stacks                           0       0.0%      0.0%      0.0%
 flops total                       115.600000E+03     100.0%      0.0%      0.0%
 flops max/rank                    115.600000E+03     100.0%      0.0%      0.0%
 matmuls inhomo. stacks                         0       0.0%      0.0%      0.0%
 matmuls total                                 67     100.0%      0.0%      0.0%
 number of processed stacks                    67     100.0%      0.0%      0.0%
 average stack size                                     1.0       0.0       0.0
 marketing flops                   115.600000E+03
 -------------------------------------------------------------------------------
 # multiplications                             67
 max memory usage/rank               8.554430E+09
 # max total images/rank                        1
 # max 3D layers                                1
 # MPI messages exchanged                    6432
 MPI messages size (bytes):
  total size                       169.320000E+03
  min size                           0.000000E+00
  max size                           2.312000E+03
  average size                      26.324627E+00
 MPI breakdown and total messages size (bytes):
             size <=      128                6030                        0
       128 < size <=     8192                 402                   169320
      8192 < size <=    32768                   0                        0
     32768 < size <=   131072                   0                        0
    131072 < size <=  4194304                   0                        0
   4194304 < size <= 16777216                   0                        0
  16777216 < size                               0                        0
 -------------------------------------------------------------------------------
 -                                                                             -
 -                      DBCSR MESSAGE PASSING PERFORMANCE                      -
 -                                                                             -
 -------------------------------------------------------------------------------
 ROUTINE             CALLS      AVE VOLUME [Bytes]
 MP_Bcast                4                     12.
 MP_Allreduce          358                      9.
 MP_Alltoall          2187                   1462.
 MP_ISend             1072                    106.
 MP_IRecv             1072                     52.
 -------------------------------------------------------------------------------

 -------------------------------------------------------------------------------
 -                                                                             -
 -                                GRID STATISTICS                              -
 -                                                                             -
 -------------------------------------------------------------------------------
 LP    KERNEL             BACKEND                              COUNT     PERCENT
 4     collocate ortho    CPU                                    544      50.56%
 4     integrate ortho    CPU                                    528      49.07%
 0     collocate general  CPU                                      2       0.19%
 0     integrate general  CPU                                      2       0.19%
 -------------------------------------------------------------------------------

 -------------------------------------------------------------------------------
 -                                                                             -
 -                          OFFLOAD MEMPOOL STATISTICS                         -
 -                                                                             -
 -------------------------------------------------------------------------------
 Memory consumption                Number of allocations  Used [MiB]  Size [MiB]
 Host                                                  6         314    11512340
 -------------------------------------------------------------------------------

 MEMORY| Estimated peak process memory [MiB]                                6218

 -------------------------------------------------------------------------------
 ----                             MULTIGRID INFO                            ----
 -------------------------------------------------------------------------------
 count for grid        1:              0          cutoff [a.u.]          500.00
 count for grid        2:          25544          cutoff [a.u.]          166.67
 count for grid        3:          16133          cutoff [a.u.]           55.56
 count for grid        4:          10307          cutoff [a.u.]           18.52
 total gridlevel count  :          51984

 -------------------------------------------------------------------------------
 -                                                                             -
 -                         MESSAGE PASSING PERFORMANCE                         -
 -                                                                             -
 -------------------------------------------------------------------------------

 ROUTINE             CALLS      AVE VOLUME [Bytes]
 MP_Group                4
 MP_Bcast              131                  78401.
 MP_Allreduce         1007                   6279.
 MP_Sync                70
 MP_Alltoall           786              267738250.
 MP_SendRecv          2040                2230272.
 MP_ISendRecv         1980                2230272.
 MP_Wait              8236
 MP_comm_split          66
 MP_ISend             5440                6534633.
 MP_IRecv             5440                6534823.
 -------------------------------------------------------------------------------


 -------------------------------------------------------------------------------
 -                                                                             -
 -                           R E F E R E N C E S                               -
 -                                                                             -
 -------------------------------------------------------------------------------
 
 CP2K version 2026.2, the CP2K developers group (2026).
 CP2K is freely available from https://www.cp2k.org/ .
 
 M. Iannuzzi, J. Wilhelm, F. Stein, A. Bussy, H. Elgabarty, D. Golze, A. Hehn, 
 M. Graml, S. Marek, B. Sertcan Gökmen, C. Schran, H. Forbert, R. Z. 
 Khaliullin, A. Kozhevnikov, M. Taillefumier, R. Meli, V. V. Rybkin, M. Brehm, 
 R. Schade, O. Schütt, J. V. Pototschnig, H. Mirhosseini, A. Knüpfer, D. Marx, 
 M. Krack, J. Hutter, T. D. Kühne.
 J. Phys. Chem. B 130, 1237-1310 (2026).
 The CP2K Program Package Made Simple.
 https://doi.org/10.1021/acs.jpcb.5c05851

 T. D. Kühne, M. Iannuzzi, M. Del Ben, V. V. Rybkin, P. Seewald, F. Stein, T. 
 Laino, R. Z. Khaliullin, O. Schütt, F. Schiffmann, D. Golze, J. Wilhelm, S. 
 Chulkov, M. H. Bani-Hashemian, V. Weber, U. Borstnik, M. Taillefumier, A. S. 
 Jakobovits, A. Lazzaro, H. Pabst, T. Müller, R. Schade, M. Guidon, S. 
 Andermatt, N. Holmberg, G. K. Schenter, A. Hehn, A. Bussy, F. Belleflamme, G. 
 Tabacchi, A. Glöß, M. Lass, I. Bethune, C. J. Mundy, C. Plessl, M. Watkins, 
 J. VandeVondele, M. Krack, J. Hutter.
 J. Chem. Phys. 152, 194103 (2020).
 CP2K: An electronic structure and molecular dynamics software package - 
 Quickstep: Efficient and accurate electronic structure calculations.
 https://doi.org/10.1063/5.0007045

 O. Schuett, P. Messmer, J. Hutter, J. VandeVondele.
 Electronic Structure Calculations on Graphics Processing Units, 173-190 (2016).
 GPU-Accelerated Sparse Matrix-Matrix Multiplication for Linear Scaling Density 
 Functional Theory.
 https://doi.org/10.1002/9781118670712.ch8

 U. Borstnik, J. VandeVondele, V. Weber, J. Hutter.
 Parallel Comput. 40, 47-58 (2014).
 Sparse matrix multiplication: The distributed block-compressed sparse row 
 library.
 https://doi.org/10.1016/j.parco.2014.03.012

 J. VandeVondele, J. Hutter.
 J. Chem. Phys. 127, 114105 (2007).
 Gaussian basis sets for accurate calculations on molecular systems in gas and 
 condensed phases.
 https://doi.org/10.1063/1.2770708

 J. VandeVondele, M. Krack, F. Mohamed, M. Parrinello, T. Chassaing, J. Hutter.
 Comput. Phys. Commun. 167, 103-128 (2005).
 QUICKSTEP: Fast and accurate density functional calculations using a mixed 
 Gaussian and plane waves approach.
 https://doi.org/10.1016/j.cpc.2004.12.014

 M. Krack.
 Theor. Chem. Acc. 114, 145-152 (2005).
 Pseudopotentials for H to Kr optimized for gradient-corrected 
 exchange-correlation functionals.
 https://doi.org/10.1007/s00214-005-0655-y

 M. Frigo, S. G. Johnson.
 Proc. IEEE 93, 216-231 (2005).
 The design and implementation of FFTW3.
 https://doi.org/10.1109/JPROC.2004.840301

 C. Hartwigsen, S. Goedecker, J. Hutter.
 Phys. Rev. B 58, 3641-3662 (1998).
 Relativistic separable dual-space Gaussian pseudopotentials from H to Rn.
 https://doi.org/10.1103/PhysRevB.58.3641

 G. Lippert, J. Hutter, M. Parrinello.
 Mol. Phys. 92, 477-487 (1997).
 A hybrid Gaussian and plane wave density functional scheme.
 https://doi.org/10.1080/002689797170220

 S. Goedecker, M. Teter, J. Hutter.
 Phys. Rev. B 54, 1703-1710 (1996).
 Separable dual-space Gaussian pseudopotentials.
 https://doi.org/10.1103/PhysRevB.54.1703


 -------------------------------------------------------------------------------
 -                                                                             -
 -                                T I M I N G                                  -
 -                                                                             -
 -------------------------------------------------------------------------------
 SUBROUTINE                       CALLS  ASD         SELF TIME        TOTAL TIME
                                MAXIMUM       AVERAGE  MAXIMUM  AVERAGE  MAXIMUM
 CP2K                                 1  1.0    0.048    0.053  566.853  566.853
 qs_energies                          1  2.0    0.000    0.000  563.339  563.339
 scf_env_do_scf                       1  3.0    0.000    0.000  551.664  551.664
 scf_env_do_scf_inner_loop           33  4.0    0.001    0.002  551.664  551.664
 fft_wrap_pw1pw2                    638  9.2    0.026    0.032  396.881  398.372
 fft_wrap_pw1pw2_500                236  9.8   10.980   11.515  344.692  352.209
 fft3d_ps                           638 11.2  181.606  183.465  285.917  290.770
 qs_ks_update_qs_env                 33  5.0    0.000    0.000  282.471  282.506
 rebuild_ks_matrix                   33  6.0    0.000    0.000  282.468  282.503
 qs_ks_build_kohn_sham_matrix        33  7.0   32.300   32.328  282.468  282.503
 qs_rho_update_rho_low               34  5.0    0.000    0.000  277.227  277.227
 calculate_rho_elec                  68  6.0    3.494    3.507  277.227  277.227
 density_rs2pw                       68  7.0    0.008    0.009  266.030  269.381
 sum_up_and_integrate                33  8.0    0.000    0.001  152.988  153.006
 integrate_v_rspace                  66  9.0    0.002    0.002  152.988  153.005
 potential_pw2rs                     66 10.0    0.198    0.214  152.969  153.001
 pw_gather_p                        339 10.6   61.681   67.307   61.681   67.307
 yz_to_x                            339 11.6   43.987   45.688   63.204   66.658
 fft_wrap_pw1pw2_170                134 10.5    0.590    0.677   42.886   48.962
 x_to_yz                            299 13.0   25.783   25.977   41.078   43.966
 mp_alltoall_z22v                   638 13.2   34.512   40.025   34.512   40.025
 pw_poisson_solve                    33  8.0    0.002    0.002   35.863   36.697
 transfer_rs2pw                     274  8.0    0.012    0.015   33.628   36.112
 transfer_pw2rs                     266 11.0    0.008    0.011   34.799   34.942
 transfer_rs2pw_500                  70  9.0   12.765   14.323   23.653   26.598
 mp_waitany                        5440 11.4   21.200   25.385   21.200   25.385
 pw_scatter_p                       299 12.0   22.936   24.748   22.936   24.748
 transfer_pw2rs_500                  68 11.9   13.372   13.964   24.017   24.434
 pw_poisson_set                      34  8.9    0.004    0.004   22.484   23.318
 pw_copy                            463 10.3   17.889   18.138   17.889   18.138
 pw_derive                           99 10.0   14.462   15.131   14.462   15.131
 pw_copy_to_array                   339 10.6   11.277   11.532   11.277   11.532
 -------------------------------------------------------------------------------

 The number of warnings for this run is : 0
 
 -------------------------------------------------------------------------------
  **** **** ******  **  PROGRAM ENDED AT                 2026-08-13 13:10:18.911
 ***** ** ***  *** **   PROGRAM RAN ON            eb3791e2ef3243b6944400b65b9622
 **    ****   ******    PROGRAM RAN BY                                 <unknown>
 ***** **    ** ** **   PROGRAM PROCESS ID                                   954
  **** **  *******  **  PROGRAM STOPPED IN                    /tmp/cp2k_aj51zoe0
