 DBCSR| CPU Multiplication driver                                           XSMM (U)
 DBCSR| Multrec recursion limit                                              512 (U)
 DBCSR| Multiplication stack size                                           1000 (D)
 DBCSR| Maximum elements for images                                    UNLIMITED (U)
 DBCSR| Multiplicative factor virtual images                                   1 (U)
 DBCSR| Use multiplication densification                                       T (D)
 DBCSR| Multiplication size stacks                                             3 (U)
 DBCSR| Use memory pool for CPU allocation                                     F (U)
 DBCSR| Number of 3D layers                                               SINGLE (U)
 DBCSR| Use MPI memory allocation                                              F (U)
 DBCSR| Use RMA algorithm                                                      F (U)
 DBCSR| Use Communication thread                                               T (U)
 DBCSR| Communication thread load                                             87 (D)
 DBCSR| MPI: My process id                                                     0
 DBCSR| MPI: Number of processes                                               1
 DBCSR| OMP: Current number of threads                                         1
 DBCSR| OMP: Max number of threads                                             1
 DBCSR| Split modifier for TAS multiplication algorithm                  1.0E+00 (U)


  **** **** ******  **  PROGRAM STARTED AT               2026-05-30 14:53:12.414
 ***** ** ***  *** **   PROGRAM STARTED ON                            spark-c86c
 **    ****   ******    PROGRAM STARTED BY                              kuehne88
 ***** **    ** ** **   PROGRAM PROCESS ID                                141103
  **** **  *******  **  PROGRAM STARTED IN /home/kuehne88/molecular-skala-final-
                                           20260530-prhead/skala-molopt-bench/ru
                                           ns/H2O_GAPW_AE_skala_base

 CP2K| version string:                 CP2K version 2026.1 (Development Version)
 CP2K| source code revision number:                                   362771334d
 CP2K| cp2kflags: omp libint fftw3 libxc gauxc gauxc_mpi gauxc_onedft gauxc_host
 CP2K|             gauxc_device gauxc_cuda parallel scalapack xsmm spglib libtor
 CP2K|            rch
 CP2K| is freely available from                            https://www.cp2k.org/
 CP2K| Program compiled at                                   2026-05-29 22:13:32
 CP2K| Program compiled on                                            spark-c86c
 CP2K| Program compiled for                                              aarch64
 CP2K| Data directory path        /home/kuehne88/cp2k-periodic-skala-verify/data
 CP2K| Input file name                                                 input.inp

 GLOBAL| Force Environment number                                              1
 GLOBAL| Basis set file name                                    BASIS_MOLOPT_UZH
 GLOBAL| Potential file name                                       POTENTIAL_UZH
 GLOBAL| MM Potential file name                                     MM_POTENTIAL
 GLOBAL| Coordinate file name                                      __STD_INPUT__
 GLOBAL| Method name                                                        CP2K
 GLOBAL| Project name                                          H2O_GAPW_AE_skala
 GLOBAL| Run type                                                   ENERGY_FORCE
 GLOBAL| FFT library                                                       FFTW3
 GLOBAL| Diagonalization library                                       ScaLAPACK
 GLOBAL| Cholesky decomposition library                                ScaLAPACK
 GLOBAL| DGEMM library                                                      BLAS
 GLOBAL| Direct generalized diagonalization requested                          F
 GLOBAL| Orthonormality check for eigenvectors                          DISABLED
 GLOBAL| Matrix multiplication library                                 ScaLAPACK
 GLOBAL| All-to-all communication in single precision                          F
 GLOBAL| FFTs using library dependent lengths                                  F
 GLOBAL| Grid backend                                                       AUTO
 GLOBAL| Global print level                                                  LOW
 GLOBAL| MPI I/O enabled                                                       T
 GLOBAL| Total number of message passing processes                             1
 GLOBAL| Number of distributed systems (nodes)                                 1
 GLOBAL| Number of threads for this process                                    1
 GLOBAL| This output is from process                                           0
 GLOBAL| OpenMP stack size per thread (OMP_STACKSIZE)                       512M
 GLOBAL| CPU model name                                                  UNKNOWN
 GLOBAL| CPUID                                                              2200
 GLOBAL| Compiled for CPUID                                                 2000

 *** HINT in environment.F:970 :: The compiler target flags (arm_arch64)   ***
 *** used to build this binary cannot exploit all extensions of this CPU   ***
 *** model (arm_sve256). Consider compiler target flags as part of FCFLAGS ***
 *** and CFLAGS (ARCH file).                                               ***


 MEMORY| system memory details [Kb]
 MEMORY|                        rank 0           min           max       average
 MEMORY| MemTotal            125508532     125508532     125508532     125508532
 MEMORY| MemFree              45611188      45611188      45611188      45611188
 MEMORY| Buffers               1406264       1406264       1406264       1406264
 MEMORY| Cached               64428976      64428976      64428976      64428976
 MEMORY| Slab                  3536868       3536868       3536868       3536868
 MEMORY| SReclaimable          2678784       2678784       2678784       2678784
 MEMORY| MemLikelyFree       114125212     114125212     114125212     114125212


 GENERATE|  Preliminary Number of Bonds generated:                             0
 GENERATE|  Achieved consistency in connectivity generation.

 *******************************************************************************
 *******************************************************************************
 **                                                                           **
 **     #####                         ##              ##                      **
 **    ##   ##            ##          ##              ##                      **
 **   ##     ##                       ##            ######                    **
 **   ##     ##  ##   ##  ##   #####  ##  ##   ####   ##    #####    #####    **
 **   ##     ##  ##   ##  ##  ##      ## ##   ##      ##   ##   ##  ##   ##   **
 **   ##  ## ##  ##   ##  ##  ##      ####     ###    ##   ######   ######    **
 **    ##  ###   ##   ##  ##  ##      ## ##      ##   ##   ##       ##        **
 **     #######   #####   ##   #####  ##  ##  ####    ##    #####   ##        **
 **           ##                                                    ##        **
 **                                                                           **
 **                                                ... make the atoms dance   **
 **                                                                           **
 **            Copyright (C) by CP2K developers group (2000-2026)             **
 **                      J. Chem. Phys. 152, 194103 (2020)                    **
 **                                                                           **
 *******************************************************************************


 TOTAL NUMBERS AND MAXIMUM NUMBERS

  Total number of            - Atomic kinds:                                   2
                             - Atoms:                                          3
                             - Shell sets:                                     7
                             - Shells:                                        37
                             - Primitive Cartesian functions:                 33
                             - Cartesian basis functions:                    142
                             - Spherical basis functions:                    117

  Maximum angular momentum of the orbital basis functions:                     4


 SCF PARAMETERS         Density guess:                                    ATOMIC
                        --------------------------------------------------------
                        max_scf:                                             100
                        max_scf_history:                                       0
                        max_diis:                                              4
                        --------------------------------------------------------
                        eps_scf:                                        1.00E-08
                        eps_scf_history:                                0.00E+00
                        eps_diis:                                       1.00E-01
                        eps_eigval:                                     1.00E-05
                        --------------------------------------------------------
                        level_shift [a.u.]:                             0.000000
                        --------------------------------------------------------
                        Mixing method:                           DIRECT_P_MIXING
                        --------------------------------------------------------
                        No outer SCF

 Extrapolation method: initial_guess

 Number of electrons:                                                         10
 Number of occupied orbitals:                                                  5
 Number of molecular orbitals:                                                 5

 Number of orbital functions:                                                117
 Number of independent orbital functions:                                    117


 SCF WAVEFUNCTION OPTIMIZATION

  Step     Update method      Time    Convergence         Total energy    Change
  ------------------------------------------------------------------------------

 *** WARNING in xc/xc_gauxc_functional.F:1154 :: GauXC OneDFT/SKALA        ***
 *** nuclear gradients are sensitive to the GauXC molecular grid. Use GRID ***
 *** SUPERFINE and PRUNING_SCHEME UNPRUNED for quantitative force checks.  ***

     1 P_Mix/Diag. 0.40E+00    4.5     0.90727044       -76.3741671700 -7.64E+01

 *** WARNING in xc/xc_gauxc_functional.F:1154 :: GauXC OneDFT/SKALA        ***
 *** nuclear gradients are sensitive to the GauXC molecular grid. Use GRID ***
 *** SUPERFINE and PRUNING_SCHEME UNPRUNED for quantitative force checks.  ***

     2 P_Mix/Diag. 0.40E+00    3.4     0.44618129       -76.3987378979 -2.46E-02

 *** WARNING in xc/xc_gauxc_functional.F:1154 :: GauXC OneDFT/SKALA        ***
 *** nuclear gradients are sensitive to the GauXC molecular grid. Use GRID ***
 *** SUPERFINE and PRUNING_SCHEME UNPRUNED for quantitative force checks.  ***

     3 P_Mix/Diag. 0.40E+00    3.2     0.26802550       -76.4138438904 -1.51E-02

 *** WARNING in xc/xc_gauxc_functional.F:1154 :: GauXC OneDFT/SKALA        ***
 *** nuclear gradients are sensitive to the GauXC molecular grid. Use GRID ***
 *** SUPERFINE and PRUNING_SCHEME UNPRUNED for quantitative force checks.  ***

     4 P_Mix/Diag. 0.40E+00    3.1     0.15700881       -76.4226086177 -8.76E-03

 *** WARNING in xc/xc_gauxc_functional.F:1154 :: GauXC OneDFT/SKALA        ***
 *** nuclear gradients are sensitive to the GauXC molecular grid. Use GRID ***
 *** SUPERFINE and PRUNING_SCHEME UNPRUNED for quantitative force checks.  ***

     5 P_Mix/Diag. 0.40E+00    3.1     0.08504216       -76.4278625179 -5.25E-03

 *** WARNING in xc/xc_gauxc_functional.F:1154 :: GauXC OneDFT/SKALA        ***
 *** nuclear gradients are sensitive to the GauXC molecular grid. Use GRID ***
 *** SUPERFINE and PRUNING_SCHEME UNPRUNED for quantitative force checks.  ***

     6 DIIS/Diag.  0.42E-02    3.2     0.04308968       -76.4309915503 -3.13E-03

 *** WARNING in xc/xc_gauxc_functional.F:1154 :: GauXC OneDFT/SKALA        ***
 *** nuclear gradients are sensitive to the GauXC molecular grid. Use GRID ***
 *** SUPERFINE and PRUNING_SCHEME UNPRUNED for quantitative force checks.  ***

     7 DIIS/Diag.  0.22E-02    3.2     0.00475757       -76.4356646817 -4.67E-03

 *** WARNING in xc/xc_gauxc_functional.F:1154 :: GauXC OneDFT/SKALA        ***
 *** nuclear gradients are sensitive to the GauXC molecular grid. Use GRID ***
 *** SUPERFINE and PRUNING_SCHEME UNPRUNED for quantitative force checks.  ***

     8 DIIS/Diag.  0.20E-02    3.2     0.00665797       -76.4356634897  1.19E-06

 *** WARNING in xc/xc_gauxc_functional.F:1154 :: GauXC OneDFT/SKALA        ***
 *** nuclear gradients are sensitive to the GauXC molecular grid. Use GRID ***
 *** SUPERFINE and PRUNING_SCHEME UNPRUNED for quantitative force checks.  ***

     9 DIIS/Diag.  0.17E-02    3.1     0.00260557       -76.4356644734 -9.84E-07

 *** WARNING in xc/xc_gauxc_functional.F:1154 :: GauXC OneDFT/SKALA        ***
 *** nuclear gradients are sensitive to the GauXC molecular grid. Use GRID ***
 *** SUPERFINE and PRUNING_SCHEME UNPRUNED for quantitative force checks.  ***

    10 DIIS/Diag.  0.11E-03    3.2     0.00009078       -76.4356658855 -1.41E-06

 *** WARNING in xc/xc_gauxc_functional.F:1154 :: GauXC OneDFT/SKALA        ***
 *** nuclear gradients are sensitive to the GauXC molecular grid. Use GRID ***
 *** SUPERFINE and PRUNING_SCHEME UNPRUNED for quantitative force checks.  ***

    11 DIIS/Diag.  0.47E-04    3.2     0.00002341       -76.4356659120 -2.65E-08

 *** WARNING in xc/xc_gauxc_functional.F:1154 :: GauXC OneDFT/SKALA        ***
 *** nuclear gradients are sensitive to the GauXC molecular grid. Use GRID ***
 *** SUPERFINE and PRUNING_SCHEME UNPRUNED for quantitative force checks.  ***

    12 DIIS/Diag.  0.95E-05    3.2     0.00000390       -76.4356659067  5.29E-09

 *** WARNING in xc/xc_gauxc_functional.F:1154 :: GauXC OneDFT/SKALA        ***
 *** nuclear gradients are sensitive to the GauXC molecular grid. Use GRID ***
 *** SUPERFINE and PRUNING_SCHEME UNPRUNED for quantitative force checks.  ***

    13 DIIS/Diag.  0.25E-06    3.2     0.00000059       -76.4356658998  6.90E-09

 *** WARNING in xc/xc_gauxc_functional.F:1154 :: GauXC OneDFT/SKALA        ***
 *** nuclear gradients are sensitive to the GauXC molecular grid. Use GRID ***
 *** SUPERFINE and PRUNING_SCHEME UNPRUNED for quantitative force checks.  ***

    14 DIIS/Diag.  0.47E-07    3.2     0.00000010       -76.4356659019 -2.14E-09

 *** WARNING in xc/xc_gauxc_functional.F:1154 :: GauXC OneDFT/SKALA        ***
 *** nuclear gradients are sensitive to the GauXC molecular grid. Use GRID ***
 *** SUPERFINE and PRUNING_SCHEME UNPRUNED for quantitative force checks.  ***

    15 DIIS/Diag.  0.42E-08    3.2     5.3464E-09       -76.4356658982  3.72E-09

  *** SCF run converged in    15 steps ***


  Electronic density on regular grids:         -8.0641366595        1.9358633405
  Core density on regular grids:               10.0000000000       -0.0000000000
  Hard and soft densities (Lebedev):         -220.9419730201     -219.0061096085
  Total Rho_soft + Rho1_hard - Rho1_soft      -10.0000000712
  Total charge density (r-space):              -0.0000000712
  Total Rho_soft + Rho0_soft (g-space):        -0.0000000489

  Overlap energy of the core charge distribution:               0.00000011721531
  Self energy of the core charge distribution:                -75.73106814560732
  Core Hamiltonian energy:                                     -5.24981382450953
  Hartree energy:                                              21.68548623980628
  Exchange-correlation energy:                                 -9.31001098115946

  GAPW| Exc from hard and soft atomic rho1:                     0.00000000000000
  GAPW| local Eh = 1 center integrals:                         -7.83025930393774

  Total energy:                                               -76.43566589819247

 *** WARNING in xc/xc_gauxc_functional.F:1154 :: GauXC OneDFT/SKALA        ***
 *** nuclear gradients are sensitive to the GauXC molecular grid. Use GRID ***
 *** SUPERFINE and PRUNING_SCHEME UNPRUNED for quantitative force checks.  ***


 *** WARNING in xc/xc_gauxc_functional.F:1241 :: Using finite-difference ***
 *** GauXC XC gradients for METHOD GAPW with SKALA or all-electron basis ***
 *** functions beyond f shells.  The upstream analytical GauXC gradient  ***
 *** path is not yet reliable for this case.                             ***


 GAUXC| Molecular XC gradient virial diagnostic [a.u.]
 GAUXC|            x                   y                   z
 GAUXC| x   0.00000000000E+00   6.45844418819E-05   1.63760416270E-06
 GAUXC| y   0.00000000000E+00   1.00767675226E+00  -5.92895308229E-06
 GAUXC| z   0.00000000000E+00   1.39614453454E-05   5.62167073022E-01
 GAUXC| Molecular XC gradient virial 1/3 Trace   5.23281275093E-01
 GAUXC| Molecular XC gradient sum  -2.04662864434E-05  -1.45218415071E-05  -1.19834204781E-04
 GAUXC| Diagnostic only; this is not an analytical periodic stress tensor.

 GAUXC| Molecular XC virial finite-difference dx  1.0000E-04
 GAUXC| Molecular XC virial FD 1/3 Trace   5.23281275093E-01   5.23273934435E-01   7.34065832708E-06

 ENERGY| Total FORCE_EVAL ( QS ) energy [hartree]            -76.435665899191363

 FORCES| Atomic forces [hartree/bohr]
 FORCES|   Atom     x               y               z               |f|
 FORCES|      1  8.29865905E-06 -5.10103190E-07 -1.77990174E-03   1.77992116E-03
 FORCES|      2 -1.22321425E-05 -1.10514022E-03  9.44985705E-04   1.45412603E-03
 FORCES|      3  2.43997693E-05  1.12017217E-03  9.54751293E-04   1.47204995E-03
 FORCES| Sum     2.04662859E-05  1.45218445E-05  1.19835260E-04
 FORCES| Total atomic force                                       1.22434646E-04

 -------------------------------------------------------------------------------
 -                                                                             -
 -                                DBCSR STATISTICS                             -
 -                                                                             -
 -------------------------------------------------------------------------------
 COUNTER                                    TOTAL       BLAS       SMM       ACC
 flops    57 x    30 x     5               273600       0.0%    100.0%      0.0%     
 flops    30 x    57 x     5               273600       0.0%    100.0%      0.0%     
 flops    30 x    30 x     5               432000       0.0%    100.0%      0.0%     
 flops    57 x    57 x     5               519840       0.0%    100.0%      0.0%     
 flops inhomo. stacks                           0       0.0%      0.0%      0.0%
 flops total                         1.499040E+06       0.0%    100.0%      0.0%
 flops max/rank                      1.499040E+06       0.0%    100.0%      0.0%
 matmuls inhomo. stacks                         0       0.0%      0.0%      0.0%
 matmuls total                                 96       0.0%    100.0%      0.0%
 number of processed stacks                    64       0.0%    100.0%      0.0%
 average stack size                                     0.0       1.5       0.0
 marketing flops                     2.190240E+06
 -------------------------------------------------------------------------------
 # multiplications                             16
 max memory usage/rank              43.881857E+09
 # max total images/rank                        1
 # max 3D layers                                1
 # MPI messages exchanged                       0
 -------------------------------------------------------------------------------
 -                                                                             -
 -                      DBCSR MESSAGE PASSING PERFORMANCE                      -
 -                                                                             -
 -------------------------------------------------------------------------------
 ROUTINE             CALLS      AVE VOLUME [Bytes]
 MP_Bcast                5                     12.
 MP_Allreduce          107                     12.
 MP_Alltoall           511                  52208.
 MP_ISend               64                     60.
 MP_IRecv               64                     60.
 -------------------------------------------------------------------------------

 -------------------------------------------------------------------------------
 -                                                                             -
 -                                GRID STATISTICS                              -
 -                                                                             -
 -------------------------------------------------------------------------------
 LP    KERNEL             BACKEND                              COUNT     PERCENT
 3     collocate ortho    CPU                                    768      12.30%
 6     collocate ortho    CPU                                    768      12.30%
 6     integrate ortho    CPU                                    728      11.66%
 3     integrate ortho    CPU                                    721      11.55%
 7     integrate ortho    CPU                                    528       8.46%
 7     collocate ortho    CPU                                    512       8.20%
 4     integrate ortho    CPU                                    408       6.54%
 4     collocate ortho    CPU                                    384       6.15%
 8     integrate ortho    CPU                                    272       4.36%
 8     collocate ortho    CPU                                    256       4.10%
 0     collocate ortho    CPU                                    176       2.82%
 0     integrate ortho    CPU                                    165       2.64%
 5     integrate ortho    CPU                                    144       2.31%
 5     collocate ortho    CPU                                    128       2.05%
 1     integrate ortho    CPU                                     71       1.14%
 1     collocate ortho    CPU                                     64       1.03%
 6     collocate general  CPU                                     48       0.77%
 6     integrate general  CPU                                     45       0.72%
 2     integrate ortho    CPU                                     19       0.30%
 2     collocate ortho    CPU                                     16       0.26%
 9     integrate ortho    CPU                                     16       0.26%
 0     collocate general  CPU                                      3       0.05%
 7     integrate general  CPU                                      3       0.05%
 -------------------------------------------------------------------------------

 -------------------------------------------------------------------------------
 -                                                                             -
 -                          OFFLOAD MEMPOOL STATISTICS                         -
 -                                                                             -
 -------------------------------------------------------------------------------
 Memory consumption                Number of allocations  Used [MiB]  Size [MiB]
 Device                                                7         101         101
 Host                                                  7         101         101
 -------------------------------------------------------------------------------

 MEMORY| Estimated peak process memory [MiB]                                4777

 -------------------------------------------------------------------------------
 -                                                                             -
 -                         MESSAGE PASSING PERFORMANCE                         -
 -                                                                             -
 -------------------------------------------------------------------------------

 ROUTINE             CALLS      AVE VOLUME [Bytes]
 MP_Group                5
 MP_Bcast              127                  51779.
 MP_Allreduce          428                  19434.
 MP_Sync                19
 MP_comm_split          15
 -------------------------------------------------------------------------------


 -------------------------------------------------------------------------------
 -                                                                             -
 -                           R E F E R E N C E S                               -
 -                                                                             -
 -------------------------------------------------------------------------------
 
 CP2K version 2026.1 (Development Version), the CP2K developers group (2026).
 CP2K is freely available from https://www.cp2k.org/ .
 
 M. Iannuzzi, J. Wilhelm, F. Stein, A. Bussy, H. Elgabarty, D. Golze, A. Hehn, 
 M. Graml, S. Marek, B. Sertcan Gökmen, C. Schran, H. Forbert, R. Z. 
 Khaliullin, A. Kozhevnikov, M. Taillefumier, R. Meli, V. V. Rybkin, M. Brehm, 
 R. Schade, O. Schütt, J. V. Pototschnig, H. Mirhosseini, A. Knüpfer, D. Marx, 
 M. Krack, J. Hutter, T. D. Kühne.
 J. Phys. Chem. B 130, 1237-1310 (2026).
 The CP2K Program Package Made Simple.
 https://doi.org/10.1021/acs.jpcb.5c05851

 T. D. Kühne, M. Iannuzzi, M. Del Ben, V. V. Rybkin, P. Seewald, F. Stein, T. 
 Laino, R. Z. Khaliullin, O. Schütt, F. Schiffmann, D. Golze, J. Wilhelm, S. 
 Chulkov, M. H. Bani-Hashemian, V. Weber, U. Borstnik, M. Taillefumier, A. S. 
 Jakobovits, A. Lazzaro, H. Pabst, T. Müller, R. Schade, M. Guidon, S. 
 Andermatt, N. Holmberg, G. K. Schenter, A. Hehn, A. Bussy, F. Belleflamme, G. 
 Tabacchi, A. Glöß, M. Lass, I. Bethune, C. J. Mundy, C. Plessl, M. Watkins, 
 J. VandeVondele, M. Krack, J. Hutter.
 J. Chem. Phys. 152, 194103 (2020).
 CP2K: An electronic structure and molecular dynamics software package - 
 Quickstep: Efficient and accurate electronic structure calculations.
 https://doi.org/10.1063/5.0007045

 O. Schuett, P. Messmer, J. Hutter, J. VandeVondele.
 Electronic Structure Calculations on Graphics Processing Units, 173-190 (2016).
 GPU-Accelerated Sparse Matrix-Matrix Multiplication for Linear Scaling Density 
 Functional Theory.
 https://doi.org/10.1002/9781118670712.ch8

 A. Heinecke, G. Henry, M. Hutchinson, H. Pabst.
 Proceedings of Intl. Supercomputing Conference, 981-991 (2016).
 LIBXSMM: Accelerating Small Matrix Multiplications by Runtime Code Generation.
 https://doi.org/10.1109/SC.2016.83

 U. Borstnik, J. VandeVondele, V. Weber, J. Hutter.
 Parallel Comput. 40, 47-58 (2014).
 Sparse matrix multiplication: The distributed block-compressed sparse row 
 library.
 https://doi.org/10.1016/j.parco.2014.03.012

 J. VandeVondele, J. Hutter.
 J. Chem. Phys. 127, 114105 (2007).
 Gaussian basis sets for accurate calculations on molecular systems in gas and 
 condensed phases.
 https://doi.org/10.1063/1.2770708

 M. Frigo, S. G. Johnson.
 Proc. IEEE 93, 216-231 (2005).
 The design and implementation of FFTW3.
 https://doi.org/10.1109/JPROC.2004.840301

 M. Krack, M. Parrinello.
 Phys. Chem. Chem. Phys. 2, 2105-2112 (2000).
 All-electron ab-initio molecular dynamics.
 https://doi.org/10.1039/b001167n

 G. Lippert, J. Hutter, M. Parrinello.
 Theor. Chem. Acc. 103, 124-140 (1999).
 The Gaussian and augmented-plane-wave density functional method for ab initio 
 molecular dynamics simulations.
 https://doi.org/10.1007/s002140050523

 G. J. Martyna, M. E. Tuckerman.
 J. Chem. Phys. 110, 2810-2821 (1999).
 A reciprocal space based method for treating long range interactions in ab 
 initio and force-field-based calculations in clusters.
 https://doi.org/10.1063/1.477923


 -------------------------------------------------------------------------------
 -                                                                             -
 -                                T I M I N G                                  -
 -                                                                             -
 -------------------------------------------------------------------------------
 SUBROUTINE                       CALLS  ASD         SELF TIME        TOTAL TIME
                                MAXIMUM       AVERAGE  MAXIMUM  AVERAGE  MAXIMUM
 CP2K                                 1  1.0    0.181    0.181  102.482  102.482
 qs_forces                            1  2.0    0.000    0.000   98.516   98.516
 rebuild_ks_matrix                   16  6.8    0.000    0.000   93.281   93.281
 qs_ks_build_kohn_sham_matrix        16  7.8   82.147   82.147   93.281   93.281
 qs_energies                          1  3.0    0.000    0.000   49.755   49.755
 scf_env_do_scf                       1  4.0    0.000    0.000   49.278   49.278
 scf_env_do_scf_inner_loop           15  5.0    0.001    0.001   49.278   49.278
 qs_ks_update_qs_env_forces           1  3.0    0.000    0.000   48.750   48.750
 qs_ks_update_qs_env                 15  6.0    0.000    0.000   44.531   44.531
 fft_wrap_pw1pw2                    177 10.2    0.001    0.001   12.011   12.011
 fft_wrap_pw1pw2_300                 80 10.9    1.701    1.701   10.594   10.594
 fft3d_s                            178 12.1    5.718    5.718    5.722    5.722
 qs_rho_update_rho_low               16  6.0    0.000    0.000    5.127    5.127
 calculate_rho_elec                  16  7.0    0.192    0.192    5.115    5.115
 density_rs2pw                       16  8.0    0.001    0.001    4.734    4.734
 qs_init_subsys                       1  2.0    0.001    0.001    3.754    3.754
 qs_env_setup                         1  3.0    0.000    0.000    3.732    3.732
 qs_env_rebuild_pw_env                3  3.7    0.000    0.000    3.732    3.732
 pw_env_rebuild                       1  5.0    0.000    0.000    3.732    3.732
 pw_grid_setup                        5  6.0    0.000    0.000    3.729    3.729
 pw_grid_setup_internal               5  7.0    0.036    0.036    3.729    3.729
 pw_grid_sort                         5  8.0    2.763    2.763    3.342    3.342
 prepare_gapw_den                    16  8.8    0.000    0.000    3.205    3.205
 sum_up_and_integrate                16  8.8    0.000    0.000    3.016    3.016
 integrate_v_rspace                  16  9.8    0.001    0.001    3.016    3.016
 pw_gather_s                         97 11.8    2.855    2.855    2.855    2.855
 potential_pw2rs                     16 10.8    0.012    0.012    2.743    2.743
 pw_poisson_solve                    16  8.8    0.000    0.000    2.721    2.721
 put_rho0_on_grid                    16  9.8    0.195    0.195    2.679    2.679
 -------------------------------------------------------------------------------

 The number of warnings for this run is : 17
 
 -------------------------------------------------------------------------------
  **** **** ******  **  PROGRAM ENDED AT                 2026-05-30 14:54:55.154
 ***** ** ***  *** **   PROGRAM RAN ON                                spark-c86c
 **    ****   ******    PROGRAM RAN BY                                  kuehne88
 ***** **    ** ** **   PROGRAM PROCESS ID                                141103
  **** **  *******  **  PROGRAM STOPPED IN /home/kuehne88/molecular-skala-final-
                                           20260530-prhead/skala-molopt-bench/ru
                                           ns/H2O_GAPW_AE_skala_base
