 DBCSR| CPU Multiplication driver                                           XSMM (U)
 DBCSR| Multrec recursion limit                                              512 (U)
 DBCSR| Multiplication stack size                                           1000 (D)
 DBCSR| Maximum elements for images                                    UNLIMITED (U)
 DBCSR| Multiplicative factor virtual images                                   1 (U)
 DBCSR| Use multiplication densification                                       T (D)
 DBCSR| Multiplication size stacks                                             3 (U)
 DBCSR| Use memory pool for CPU allocation                                     F (U)
 DBCSR| Number of 3D layers                                               SINGLE (U)
 DBCSR| Use MPI memory allocation                                              F (U)
 DBCSR| Use RMA algorithm                                                      F (U)
 DBCSR| Use Communication thread                                               T (U)
 DBCSR| Communication thread load                                             87 (D)
 DBCSR| MPI: My process id                                                     0
 DBCSR| MPI: Number of processes                                               1
 DBCSR| OMP: Current number of threads                                         1
 DBCSR| OMP: Max number of threads                                             1
 DBCSR| Split modifier for TAS multiplication algorithm                  1.0E+00 (U)


  **** **** ******  **  PROGRAM STARTED AT               2026-05-30 14:28:25.389
 ***** ** ***  *** **   PROGRAM STARTED ON                            spark-c86c
 **    ****   ******    PROGRAM STARTED BY                              kuehne88
 ***** **    ** ** **   PROGRAM PROCESS ID                                128655
  **** **  *******  **  PROGRAM STARTED IN /home/kuehne88/molecular-skala-final-
                                           20260530-prhead/skala-molopt-bench/ru
                                           ns/NH3_GAPW_AE_gauxc_pbe_base

 CP2K| version string:                 CP2K version 2026.1 (Development Version)
 CP2K| source code revision number:                                   362771334d
 CP2K| cp2kflags: omp libint fftw3 libxc gauxc gauxc_mpi gauxc_onedft gauxc_host
 CP2K|             gauxc_device gauxc_cuda parallel scalapack xsmm spglib libtor
 CP2K|            rch
 CP2K| is freely available from                            https://www.cp2k.org/
 CP2K| Program compiled at                                   2026-05-29 22:13:32
 CP2K| Program compiled on                                            spark-c86c
 CP2K| Program compiled for                                              aarch64
 CP2K| Data directory path        /home/kuehne88/cp2k-periodic-skala-verify/data
 CP2K| Input file name                                                 input.inp

 GLOBAL| Force Environment number                                              1
 GLOBAL| Basis set file name                                    BASIS_MOLOPT_UZH
 GLOBAL| Potential file name                                       POTENTIAL_UZH
 GLOBAL| MM Potential file name                                     MM_POTENTIAL
 GLOBAL| Coordinate file name                                      __STD_INPUT__
 GLOBAL| Method name                                                        CP2K
 GLOBAL| Project name                                      NH3_GAPW_AE_gauxc_pbe
 GLOBAL| Run type                                                   ENERGY_FORCE
 GLOBAL| FFT library                                                       FFTW3
 GLOBAL| Diagonalization library                                       ScaLAPACK
 GLOBAL| Cholesky decomposition library                                ScaLAPACK
 GLOBAL| DGEMM library                                                      BLAS
 GLOBAL| Direct generalized diagonalization requested                          F
 GLOBAL| Orthonormality check for eigenvectors                          DISABLED
 GLOBAL| Matrix multiplication library                                 ScaLAPACK
 GLOBAL| All-to-all communication in single precision                          F
 GLOBAL| FFTs using library dependent lengths                                  F
 GLOBAL| Grid backend                                                       AUTO
 GLOBAL| Global print level                                                  LOW
 GLOBAL| MPI I/O enabled                                                       T
 GLOBAL| Total number of message passing processes                             1
 GLOBAL| Number of distributed systems (nodes)                                 1
 GLOBAL| Number of threads for this process                                    1
 GLOBAL| This output is from process                                           0
 GLOBAL| OpenMP stack size per thread (OMP_STACKSIZE)                       512M
 GLOBAL| CPU model name                                                  UNKNOWN
 GLOBAL| CPUID                                                              2200
 GLOBAL| Compiled for CPUID                                                 2000

 *** HINT in environment.F:970 :: The compiler target flags (arm_arch64)   ***
 *** used to build this binary cannot exploit all extensions of this CPU   ***
 *** model (arm_sve256). Consider compiler target flags as part of FCFLAGS ***
 *** and CFLAGS (ARCH file).                                               ***


 MEMORY| system memory details [Kb]
 MEMORY|                        rank 0           min           max       average
 MEMORY| MemTotal            125508532     125508532     125508532     125508532
 MEMORY| MemFree              50387432      50387432      50387432      50387432
 MEMORY| Buffers               1404144       1404144       1404144       1404144
 MEMORY| Cached               61904940      61904940      61904940      61904940
 MEMORY| Slab                  3458816       3458816       3458816       3458816
 MEMORY| SReclaimable          2606408       2606408       2606408       2606408
 MEMORY| MemLikelyFree       116302924     116302924     116302924     116302924


 GENERATE|  Preliminary Number of Bonds generated:                             0
 GENERATE|  Achieved consistency in connectivity generation.

 *******************************************************************************
 *******************************************************************************
 **                                                                           **
 **     #####                         ##              ##                      **
 **    ##   ##            ##          ##              ##                      **
 **   ##     ##                       ##            ######                    **
 **   ##     ##  ##   ##  ##   #####  ##  ##   ####   ##    #####    #####    **
 **   ##     ##  ##   ##  ##  ##      ## ##   ##      ##   ##   ##  ##   ##   **
 **   ##  ## ##  ##   ##  ##  ##      ####     ###    ##   ######   ######    **
 **    ##  ###   ##   ##  ##  ##      ## ##      ##   ##   ##       ##        **
 **     #######   #####   ##   #####  ##  ##  ####    ##    #####   ##        **
 **           ##                                                    ##        **
 **                                                                           **
 **                                                ... make the atoms dance   **
 **                                                                           **
 **            Copyright (C) by CP2K developers group (2000-2026)             **
 **                      J. Chem. Phys. 152, 194103 (2020)                    **
 **                                                                           **
 *******************************************************************************


 TOTAL NUMBERS AND MAXIMUM NUMBERS

  Total number of            - Atomic kinds:                                   2
                             - Atoms:                                          4
                             - Shell sets:                                     9
                             - Shells:                                        47
                             - Primitive Cartesian functions:                 41
                             - Cartesian basis functions:                    177
                             - Spherical basis functions:                    147

  Maximum angular momentum of the orbital basis functions:                     4


 SCF PARAMETERS         Density guess:                                    ATOMIC
                        --------------------------------------------------------
                        max_scf:                                             100
                        max_scf_history:                                       0
                        max_diis:                                              4
                        --------------------------------------------------------
                        eps_scf:                                        1.00E-08
                        eps_scf_history:                                0.00E+00
                        eps_diis:                                       1.00E-01
                        eps_eigval:                                     1.00E-05
                        --------------------------------------------------------
                        level_shift [a.u.]:                             0.000000
                        --------------------------------------------------------
                        Mixing method:                           DIRECT_P_MIXING
                        --------------------------------------------------------
                        No outer SCF

 Extrapolation method: initial_guess

 Number of electrons:                                                         10
 Number of occupied orbitals:                                                  5
 Number of molecular orbitals:                                                 5

 Number of orbital functions:                                                147
 Number of independent orbital functions:                                    147


 SCF WAVEFUNCTION OPTIMIZATION

  Step     Update method      Time    Convergence         Total energy    Change
  ------------------------------------------------------------------------------
     1 P_Mix/Diag. 0.40E+00    2.5     0.81999198       -56.4565715100 -5.65E+01
     2 P_Mix/Diag. 0.40E+00    1.5     0.43396922       -56.4829904193 -2.64E-02
     3 P_Mix/Diag. 0.40E+00    1.4     0.23752606       -56.4970437066 -1.41E-02
     4 P_Mix/Diag. 0.40E+00    1.4     0.13727905       -56.5042355726 -7.19E-03
     5 P_Mix/Diag. 0.40E+00    1.4     0.07855295       -56.5081796232 -3.94E-03
     6 DIIS/Diag.  0.24E-02    1.4     0.04423062       -56.5104397603 -2.26E-03
     7 DIIS/Diag.  0.41E-03    1.4     0.00028570       -56.5137261754 -3.29E-03
     8 DIIS/Diag.  0.18E-03    1.4     0.00021260       -56.5137262118 -3.64E-08
     9 DIIS/Diag.  0.24E-03    1.4     0.00014046       -56.5137261935  1.82E-08
    10 DIIS/Diag.  0.24E-04    1.4     0.00001584       -56.5137262235 -3.00E-08
    11 DIIS/Diag.  0.23E-05    1.5     0.00000097       -56.5137262240 -4.90E-10
    12 DIIS/Diag.  0.16E-05    1.4     0.00000052       -56.5137262240 -7.53E-13
    13 DIIS/Diag.  0.40E-06    1.4     0.00000010       -56.5137262240 -9.95E-13
    14 DIIS/Diag.  0.50E-08    1.5     6.4000E-10       -56.5137262240 -2.84E-14

  *** SCF run converged in    14 steps ***


  Electronic density on regular grids:         -8.1839876804        1.8160123196
  Core density on regular grids:               10.0000000000       -0.0000000000
  Hard and soft densities (Lebedev):         -183.1801956512     -181.3641833309
  Total Rho_soft + Rho1_hard - Rho1_soft      -10.0000000007
  Total charge density (r-space):              -0.0000000007
  Total Rho_soft + Rho0_soft (g-space):         0.0000000013

  Overlap energy of the core charge distribution:               0.00000057824415
  Self energy of the core charge distribution:                -52.03099861979277
  Core Hamiltonian energy:                                     -5.73955235696784
  Hartree energy:                                              17.94380214448478
  Exchange-correlation energy:                                 -7.95047379181503

  GAPW| Exc from hard and soft atomic rho1:                     0.00000000000000
  GAPW| local Eh = 1 center integrals:                         -8.73650417817555

  Total energy:                                               -56.51372622402226

 *** WARNING in xc/xc_gauxc_functional.F:1241 :: Using finite-difference ***
 *** GauXC XC gradients for METHOD GAPW with SKALA or all-electron basis ***
 *** functions beyond f shells.  The upstream analytical GauXC gradient  ***
 *** path is not yet reliable for this case.                             ***


 GAUXC| Molecular XC gradient virial diagnostic [a.u.]
 GAUXC|            x                   y                   z
 GAUXC| x   8.46545245701E-01  -4.72154558403E-11  -4.80865590100E-11
 GAUXC| y  -5.45218910231E-11   8.46499903065E-01  -1.38087249808E-05
 GAUXC| z  -9.54130198538E-11  -7.76793525476E-06   2.59270676785E-01
 GAUXC| Molecular XC gradient virial 1/3 Trace   6.50771941850E-01
 GAUXC| Molecular XC gradient sum   0.00000000000E+00  -4.44089209850E-12   0.00000000000E+00
 GAUXC| Diagnostic only; this is not an analytical periodic stress tensor.

 GAUXC| Molecular XC virial finite-difference dx  1.0000E-04
 GAUXC| Molecular XC virial FD 1/3 Trace   6.50771941850E-01   6.50771938974E-01   2.87622381467E-09

 ENERGY| Total FORCE_EVAL ( QS ) energy [hartree]            -56.513726224012338

 FORCES| Atomic forces [hartree/bohr]
 FORCES|   Atom     x               y               z               |f|
 FORCES|      1  5.47228766E-11 -1.35110787E-05  6.59451269E-03   6.59452653E-03
 FORCES|      2  3.90562702E-12  5.91134872E-03 -2.20337556E-03   6.30863753E-03
 FORCES|      3 -5.10080718E-03 -2.94891709E-03 -2.19557137E-03   6.28767679E-03
 FORCES|      4  5.10080718E-03 -2.94891709E-03 -2.19557136E-03   6.28767679E-03
 FORCES| Sum     5.70225525E-11  3.45997764E-09 -5.59054238E-09
 FORCES| Total atomic force                                       6.57486585E-09

 -------------------------------------------------------------------------------
 -                                                                             -
 -                                DBCSR STATISTICS                             -
 -                                                                             -
 -------------------------------------------------------------------------------
 COUNTER                                    TOTAL       BLAS       SMM       ACC
 flops    57 x    30 x     5               256500       0.0%    100.0%      0.0%     
 flops    57 x    57 x     5               487350       0.0%    100.0%      0.0%     
 flops    30 x    57 x     5               513000       0.0%    100.0%      0.0%     
 flops    30 x    30 x     5               810000       0.0%    100.0%      0.0%     
 flops inhomo. stacks                           0       0.0%      0.0%      0.0%
 flops total                         2.066850E+06       0.0%    100.0%      0.0%
 flops max/rank                      2.066850E+06       0.0%    100.0%      0.0%
 matmuls inhomo. stacks                         0       0.0%      0.0%      0.0%
 matmuls total                                150       0.0%    100.0%      0.0%
 number of processed stacks                    60       0.0%    100.0%      0.0%
 average stack size                                     0.0       2.5       0.0
 marketing flops                     3.241350E+06
 -------------------------------------------------------------------------------
 # multiplications                             15
 max memory usage/rank              34.221560E+09
 # max total images/rank                        1
 # max 3D layers                                1
 # MPI messages exchanged                       0
 -------------------------------------------------------------------------------
 -                                                                             -
 -                      DBCSR MESSAGE PASSING PERFORMANCE                      -
 -                                                                             -
 -------------------------------------------------------------------------------
 ROUTINE             CALLS      AVE VOLUME [Bytes]
 MP_Bcast                5                     12.
 MP_Allreduce          102                     12.
 MP_Alltoall           478                  82106.
 MP_ISend               60                     80.
 MP_IRecv               60                     80.
 -------------------------------------------------------------------------------

 -------------------------------------------------------------------------------
 -                                                                             -
 -                                GRID STATISTICS                              -
 -                                                                             -
 -------------------------------------------------------------------------------
 LP    KERNEL             BACKEND                              COUNT     PERCENT
 3     collocate ortho    CPU                                   1440      13.29%
 6     collocate ortho    CPU                                   1440      13.29%
 6     integrate ortho    CPU                                   1360      12.55%
 3     integrate ortho    CPU                                   1348      12.44%
 4     integrate ortho    CPU                                    768       7.09%
 7     integrate ortho    CPU                                    768       7.09%
 4     collocate ortho    CPU                                    720       6.65%
 7     collocate ortho    CPU                                    720       6.65%
 0     collocate ortho    CPU                                    315       2.91%
 0     integrate ortho    CPU                                    294       2.71%
 5     integrate ortho    CPU                                    272       2.51%
 8     integrate ortho    CPU                                    272       2.51%
 5     collocate ortho    CPU                                    240       2.22%
 8     collocate ortho    CPU                                    240       2.22%
 1     integrate ortho    CPU                                    189       1.74%
 1     collocate ortho    CPU                                    180       1.66%
 2     integrate ortho    CPU                                     68       0.63%
 2     collocate ortho    CPU                                     60       0.55%
 6     collocate general  CPU                                     60       0.55%
 6     integrate general  CPU                                     56       0.52%
 9     integrate ortho    CPU                                     16       0.15%
 0     collocate general  CPU                                      4       0.04%
 7     integrate general  CPU                                      4       0.04%
 -------------------------------------------------------------------------------

 -------------------------------------------------------------------------------
 -                                                                             -
 -                          OFFLOAD MEMPOOL STATISTICS                         -
 -                                                                             -
 -------------------------------------------------------------------------------
 Memory consumption                Number of allocations  Used [MiB]  Size [MiB]
 Device                                                7         101         101
 Host                                                  7         101         101
 -------------------------------------------------------------------------------

 MEMORY| Estimated peak process memory [MiB]                                3051

 -------------------------------------------------------------------------------
 -                                                                             -
 -                         MESSAGE PASSING PERFORMANCE                         -
 -                                                                             -
 -------------------------------------------------------------------------------

 ROUTINE             CALLS      AVE VOLUME [Bytes]
 MP_Group                5
 MP_Bcast              149                  48846.
 MP_Allreduce          435                  22663.
 MP_Sync                18
 MP_comm_split          14
 -------------------------------------------------------------------------------


 -------------------------------------------------------------------------------
 -                                                                             -
 -                           R E F E R E N C E S                               -
 -                                                                             -
 -------------------------------------------------------------------------------
 
 CP2K version 2026.1 (Development Version), the CP2K developers group (2026).
 CP2K is freely available from https://www.cp2k.org/ .
 
 M. Iannuzzi, J. Wilhelm, F. Stein, A. Bussy, H. Elgabarty, D. Golze, A. Hehn, 
 M. Graml, S. Marek, B. Sertcan Gökmen, C. Schran, H. Forbert, R. Z. 
 Khaliullin, A. Kozhevnikov, M. Taillefumier, R. Meli, V. V. Rybkin, M. Brehm, 
 R. Schade, O. Schütt, J. V. Pototschnig, H. Mirhosseini, A. Knüpfer, D. Marx, 
 M. Krack, J. Hutter, T. D. Kühne.
 J. Phys. Chem. B 130, 1237-1310 (2026).
 The CP2K Program Package Made Simple.
 https://doi.org/10.1021/acs.jpcb.5c05851

 T. D. Kühne, M. Iannuzzi, M. Del Ben, V. V. Rybkin, P. Seewald, F. Stein, T. 
 Laino, R. Z. Khaliullin, O. Schütt, F. Schiffmann, D. Golze, J. Wilhelm, S. 
 Chulkov, M. H. Bani-Hashemian, V. Weber, U. Borstnik, M. Taillefumier, A. S. 
 Jakobovits, A. Lazzaro, H. Pabst, T. Müller, R. Schade, M. Guidon, S. 
 Andermatt, N. Holmberg, G. K. Schenter, A. Hehn, A. Bussy, F. Belleflamme, G. 
 Tabacchi, A. Glöß, M. Lass, I. Bethune, C. J. Mundy, C. Plessl, M. Watkins, 
 J. VandeVondele, M. Krack, J. Hutter.
 J. Chem. Phys. 152, 194103 (2020).
 CP2K: An electronic structure and molecular dynamics software package - 
 Quickstep: Efficient and accurate electronic structure calculations.
 https://doi.org/10.1063/5.0007045

 O. Schuett, P. Messmer, J. Hutter, J. VandeVondele.
 Electronic Structure Calculations on Graphics Processing Units, 173-190 (2016).
 GPU-Accelerated Sparse Matrix-Matrix Multiplication for Linear Scaling Density 
 Functional Theory.
 https://doi.org/10.1002/9781118670712.ch8

 A. Heinecke, G. Henry, M. Hutchinson, H. Pabst.
 Proceedings of Intl. Supercomputing Conference, 981-991 (2016).
 LIBXSMM: Accelerating Small Matrix Multiplications by Runtime Code Generation.
 https://doi.org/10.1109/SC.2016.83

 U. Borstnik, J. VandeVondele, V. Weber, J. Hutter.
 Parallel Comput. 40, 47-58 (2014).
 Sparse matrix multiplication: The distributed block-compressed sparse row 
 library.
 https://doi.org/10.1016/j.parco.2014.03.012

 J. VandeVondele, J. Hutter.
 J. Chem. Phys. 127, 114105 (2007).
 Gaussian basis sets for accurate calculations on molecular systems in gas and 
 condensed phases.
 https://doi.org/10.1063/1.2770708

 M. Frigo, S. G. Johnson.
 Proc. IEEE 93, 216-231 (2005).
 The design and implementation of FFTW3.
 https://doi.org/10.1109/JPROC.2004.840301

 M. Krack, M. Parrinello.
 Phys. Chem. Chem. Phys. 2, 2105-2112 (2000).
 All-electron ab-initio molecular dynamics.
 https://doi.org/10.1039/b001167n

 G. Lippert, J. Hutter, M. Parrinello.
 Theor. Chem. Acc. 103, 124-140 (1999).
 The Gaussian and augmented-plane-wave density functional method for ab initio 
 molecular dynamics simulations.
 https://doi.org/10.1007/s002140050523

 G. J. Martyna, M. E. Tuckerman.
 J. Chem. Phys. 110, 2810-2821 (1999).
 A reciprocal space based method for treating long range interactions in ab 
 initio and force-field-based calculations in clusters.
 https://doi.org/10.1063/1.477923


 -------------------------------------------------------------------------------
 -                                                                             -
 -                                T I M I N G                                  -
 -                                                                             -
 -------------------------------------------------------------------------------
 SUBROUTINE                       CALLS  ASD         SELF TIME        TOTAL TIME
                                MAXIMUM       AVERAGE  MAXIMUM  AVERAGE  MAXIMUM
 CP2K                                 1  1.0    0.179    0.179   39.289   39.289
 qs_forces                            1  2.0    0.000    0.000   35.411   35.411
 rebuild_ks_matrix                   15  6.8    0.000    0.000   30.433   30.433
 qs_ks_build_kohn_sham_matrix        15  7.8   19.829   19.829   30.433   30.433
 qs_energies                          1  3.0    0.000    0.000   21.860   21.860
 scf_env_do_scf                       1  4.0    0.000    0.000   21.369   21.369
 scf_env_do_scf_inner_loop           14  5.0    0.001    0.001   21.369   21.369
 qs_ks_update_qs_env                 14  6.0    0.000    0.000   16.901   16.901
 qs_ks_update_qs_env_forces           1  3.0    0.000    0.000   13.533   13.533
 fft_wrap_pw1pw2                    166 10.2    0.001    0.001   11.192   11.192
 fft_wrap_pw1pw2_300                 75 10.9    1.628    1.628    9.771    9.771
 fft3d_s                            167 12.1    5.317    5.317    5.320    5.320
 qs_rho_update_rho_low               15  6.0    0.000    0.000    4.835    4.835
 calculate_rho_elec                  15  7.0    0.181    0.181    4.818    4.818
 density_rs2pw                       15  8.0    0.000    0.000    4.398    4.398
 qs_init_subsys                       1  2.0    0.001    0.001    3.667    3.667
 qs_env_setup                         1  3.0    0.000    0.000    3.641    3.641
 qs_env_rebuild_pw_env                3  3.7    0.000    0.000    3.641    3.641
 pw_env_rebuild                       1  5.0    0.000    0.000    3.641    3.641
 pw_grid_setup                        5  6.0    0.000    0.000    3.638    3.638
 pw_grid_setup_internal               5  7.0    0.036    0.036    3.638    3.638
 pw_grid_sort                         5  8.0    2.688    2.688    3.240    3.240
 prepare_gapw_den                    15  8.8    0.000    0.000    3.107    3.107
 sum_up_and_integrate                15  8.8    0.000    0.000    2.886    2.886
 integrate_v_rspace                  15  9.8    0.001    0.001    2.886    2.886
 pw_gather_s                         91 11.8    2.554    2.554    2.554    2.554
 pw_poisson_solve                    15  8.8    0.000    0.000    2.542    2.542
 put_rho0_on_grid                    15  9.8    0.184    0.184    2.519    2.519
 potential_pw2rs                     15 10.8    0.011    0.011    2.470    2.470
 pw_scatter_s                        75 12.6    1.342    1.342    1.342    1.342
 pw_poisson_rebuild                  15  9.8    0.020    0.020    1.124    1.124
 MTin_create_screen_fn                1 11.0    0.054    0.054    1.105    1.105
 fft_wrap_pw1pw2_600                  1 13.0    0.086    0.086    0.800    0.800
 -------------------------------------------------------------------------------

 The number of warnings for this run is : 1
 
 -------------------------------------------------------------------------------
  **** **** ******  **  PROGRAM ENDED AT                 2026-05-30 14:29:04.930
 ***** ** ***  *** **   PROGRAM RAN ON                                spark-c86c
 **    ****   ******    PROGRAM RAN BY                                  kuehne88
 ***** **    ** ** **   PROGRAM PROCESS ID                                128655
  **** **  *******  **  PROGRAM STOPPED IN /home/kuehne88/molecular-skala-final-
                                           20260530-prhead/skala-molopt-bench/ru
                                           ns/NH3_GAPW_AE_gauxc_pbe_base
