 DBCSR| CPU Multiplication driver                                           XSMM (U)
 DBCSR| Multrec recursion limit                                              512 (U)
 DBCSR| Multiplication stack size                                           1000 (D)
 DBCSR| Maximum elements for images                                    UNLIMITED (U)
 DBCSR| Multiplicative factor virtual images                                   1 (U)
 DBCSR| Use multiplication densification                                       T (D)
 DBCSR| Multiplication size stacks                                             3 (U)
 DBCSR| Use memory pool for CPU allocation                                     F (U)
 DBCSR| Number of 3D layers                                               SINGLE (U)
 DBCSR| Use MPI memory allocation                                              F (U)
 DBCSR| Use RMA algorithm                                                      F (U)
 DBCSR| Use Communication thread                                               T (U)
 DBCSR| Communication thread load                                             87 (D)
 DBCSR| MPI: My process id                                                     0
 DBCSR| MPI: Number of processes                                               1
 DBCSR| OMP: Current number of threads                                         1
 DBCSR| OMP: Max number of threads                                             1
 DBCSR| Split modifier for TAS multiplication algorithm                  1.0E+00 (U)


  **** **** ******  **  PROGRAM STARTED AT               2026-05-22 02:05:41.147
 ***** ** ***  *** **   PROGRAM STARTED ON                            spark-c86c
 **    ****   ******    PROGRAM STARTED BY                              kuehne88
 ***** **    ** ** **   PROGRAM PROCESS ID                               1994618
  **** **  *******  **  PROGRAM STARTED IN /home/kuehne88/skala-molopt-bench/run
                                           s/NH3_GAPW_AE_gauxc_pbe_force_minus

 CP2K| version string:                 CP2K version 2026.1 (Development Version)
 CP2K| source code revision number:                                   919a8b9f61
 CP2K| cp2kflags: omp libint fftw3 libxc gauxc gauxc_mpi gauxc_onedft gauxc_host
 CP2K|             parallel scalapack xsmm spglib
 CP2K| is freely available from                            https://www.cp2k.org/
 CP2K| Program compiled at                                   2026-05-22 00:16:10
 CP2K| Program compiled on                                            spark-c86c
 CP2K| Program compiled for                                              aarch64
 CP2K| Data directory path              /home/kuehne88/cp2k-master-20260520/data
 CP2K| Input file name                                                 input.inp

 GLOBAL| Force Environment number                                              1
 GLOBAL| Basis set file name                                    BASIS_MOLOPT_UZH
 GLOBAL| Potential file name                                       POTENTIAL_UZH
 GLOBAL| MM Potential file name                                     MM_POTENTIAL
 GLOBAL| Coordinate file name                                      __STD_INPUT__
 GLOBAL| Method name                                                        CP2K
 GLOBAL| Project name                                      NH3_GAPW_AE_gauxc_pbe
 GLOBAL| Run type                                                         ENERGY
 GLOBAL| FFT library                                                       FFTW3
 GLOBAL| Diagonalization library                                       ScaLAPACK
 GLOBAL| Cholesky decomposition library                                ScaLAPACK
 GLOBAL| DGEMM library                                                      BLAS
 GLOBAL| Direct generalized diagonalization requested                          F
 GLOBAL| Orthonormality check for eigenvectors                          DISABLED
 GLOBAL| Matrix multiplication library                                 ScaLAPACK
 GLOBAL| All-to-all communication in single precision                          F
 GLOBAL| FFTs using library dependent lengths                                  F
 GLOBAL| Grid backend                                                       AUTO
 GLOBAL| Global print level                                                  LOW
 GLOBAL| MPI I/O enabled                                                       T
 GLOBAL| Total number of message passing processes                             1
 GLOBAL| Number of distributed systems (nodes)                                 1
 GLOBAL| Number of threads for this process                                    1
 GLOBAL| This output is from process                                           0
 GLOBAL| OpenMP stack size per thread (OMP_STACKSIZE)                       512M
 GLOBAL| CPU model name                                                  UNKNOWN
 GLOBAL| CPUID                                                              2200
 GLOBAL| Compiled for CPUID                                                 2000

 *** HINT in environment.F:970 :: The compiler target flags (arm_arch64)   ***
 *** used to build this binary cannot exploit all extensions of this CPU   ***
 *** model (arm_sve256). Consider compiler target flags as part of FCFLAGS ***
 *** and CFLAGS (ARCH file).                                               ***


 MEMORY| system memory details [Kb]
 MEMORY|                        rank 0           min           max       average
 MEMORY| MemTotal            125508532     125508532     125508532     125508532
 MEMORY| MemFree              49534164      49534164      49534164      49534164
 MEMORY| Buffers                896344        896344        896344        896344
 MEMORY| Cached               19452220      19452220      19452220      19452220
 MEMORY| Slab                  5839748       5839748       5839748       5839748
 MEMORY| SReclaimable          4438832       4438832       4438832       4438832
 MEMORY| MemLikelyFree        74321560      74321560      74321560      74321560


 GENERATE|  Preliminary Number of Bonds generated:                             0
 GENERATE|  Achieved consistency in connectivity generation.

 *******************************************************************************
 *******************************************************************************
 **                                                                           **
 **     #####                         ##              ##                      **
 **    ##   ##            ##          ##              ##                      **
 **   ##     ##                       ##            ######                    **
 **   ##     ##  ##   ##  ##   #####  ##  ##   ####   ##    #####    #####    **
 **   ##     ##  ##   ##  ##  ##      ## ##   ##      ##   ##   ##  ##   ##   **
 **   ##  ## ##  ##   ##  ##  ##      ####     ###    ##   ######   ######    **
 **    ##  ###   ##   ##  ##  ##      ## ##      ##   ##   ##       ##        **
 **     #######   #####   ##   #####  ##  ##  ####    ##    #####   ##        **
 **           ##                                                    ##        **
 **                                                                           **
 **                                                ... make the atoms dance   **
 **                                                                           **
 **            Copyright (C) by CP2K developers group (2000-2026)             **
 **                      J. Chem. Phys. 152, 194103 (2020)                    **
 **                                                                           **
 *******************************************************************************


 TOTAL NUMBERS AND MAXIMUM NUMBERS

  Total number of            - Atomic kinds:                                   2
                             - Atoms:                                          4
                             - Shell sets:                                     9
                             - Shells:                                        47
                             - Primitive Cartesian functions:                 41
                             - Cartesian basis functions:                    177
                             - Spherical basis functions:                    147

  Maximum angular momentum of the orbital basis functions:                     4


 SCF PARAMETERS         Density guess:                                    ATOMIC
                        --------------------------------------------------------
                        max_scf:                                             100
                        max_scf_history:                                       0
                        max_diis:                                              4
                        --------------------------------------------------------
                        eps_scf:                                        1.00E-08
                        eps_scf_history:                                0.00E+00
                        eps_diis:                                       1.00E-01
                        eps_eigval:                                     1.00E-05
                        --------------------------------------------------------
                        level_shift [a.u.]:                             0.000000
                        --------------------------------------------------------
                        Mixing method:                           DIRECT_P_MIXING
                        --------------------------------------------------------
                        No outer SCF

 Extrapolation method: initial_guess

 Number of electrons:                                                         10
 Number of occupied orbitals:                                                  5
 Number of molecular orbitals:                                                 5

 Number of orbital functions:                                                147
 Number of independent orbital functions:                                    147


 SCF WAVEFUNCTION OPTIMIZATION

  Step     Update method      Time    Convergence         Total energy    Change
  ------------------------------------------------------------------------------
     1 P_Mix/Diag. 0.40E+00    2.6     0.82000586       -56.4564933742 -5.65E+01
     2 P_Mix/Diag. 0.40E+00    1.5     0.43370403       -56.4829392835 -2.64E-02
     3 P_Mix/Diag. 0.40E+00    1.5     0.23735297       -56.4970142823 -1.41E-02
     4 P_Mix/Diag. 0.40E+00    1.4     0.13717905       -56.5042194666 -7.21E-03
     5 P_Mix/Diag. 0.40E+00    1.4     0.07849222       -56.5081715630 -3.95E-03
     6 DIIS/Diag.  0.24E-02    1.4     0.04422166       -56.5104365396 -2.26E-03
     7 DIIS/Diag.  0.41E-03    1.4     0.00028593       -56.5137302172 -3.29E-03
     8 DIIS/Diag.  0.18E-03    1.4     0.00021286       -56.5137302535 -3.63E-08
     9 DIIS/Diag.  0.24E-03    1.4     0.00014053       -56.5137302353  1.83E-08
    10 DIIS/Diag.  0.24E-04    1.4     0.00001578       -56.5137302653 -3.00E-08
    11 DIIS/Diag.  0.23E-05    1.5     0.00000097       -56.5137302658 -4.86E-10
    12 DIIS/Diag.  0.16E-05    1.4     0.00000052       -56.5137302658 -9.31E-13
    13 DIIS/Diag.  0.40E-06    1.4     0.00000010       -56.5137302658 -2.13E-13
    14 DIIS/Diag.  0.50E-08    1.4     6.2981E-10       -56.5137302658 -2.77E-13

  *** SCF run converged in    14 steps ***


  Electronic density on regular grids:         -8.1839988557        1.8160011443
  Core density on regular grids:               10.0000000000       -0.0000000000
  Hard and soft densities (Lebedev):         -183.0853122122     -181.2693110672
  Total Rho_soft + Rho1_hard - Rho1_soft      -10.0000000007
  Total charge density (r-space):              -0.0000000007
  Total Rho_soft + Rho0_soft (g-space):         0.0000000013

  Overlap energy of the core charge distribution:               0.00000057598714
  Self energy of the core charge distribution:                -52.03099861979277
  Core Hamiltonian energy:                                     -5.74003081709025
  Hartree energy:                                              17.94418811910968
  Exchange-correlation energy:                                 -7.95032654724847

  GAPW| Exc from hard and soft atomic rho1:                     0.00000000000000
  GAPW| local Eh = 1 center integrals:                         -8.73656297676882

  Total energy:                                               -56.51373026580349

 ENERGY| Total FORCE_EVAL ( QS ) energy [hartree]            -56.513730265803488

 -------------------------------------------------------------------------------
 -                                                                             -
 -                                DBCSR STATISTICS                             -
 -                                                                             -
 -------------------------------------------------------------------------------
 COUNTER                                    TOTAL       BLAS       SMM       ACC
 flops    57 x    30 x     5               239400       0.0%    100.0%      0.0%     
 flops    57 x    57 x     5               454860       0.0%    100.0%      0.0%     
 flops    30 x    57 x     5               478800       0.0%    100.0%      0.0%     
 flops    30 x    30 x     5               756000       0.0%    100.0%      0.0%     
 flops inhomo. stacks                           0       0.0%      0.0%      0.0%
 flops total                         1.929060E+06       0.0%    100.0%      0.0%
 flops max/rank                      1.929060E+06       0.0%    100.0%      0.0%
 matmuls inhomo. stacks                         0       0.0%      0.0%      0.0%
 matmuls total                                140       0.0%    100.0%      0.0%
 number of processed stacks                    56       0.0%    100.0%      0.0%
 average stack size                                     0.0       2.5       0.0
 marketing flops                     3.025260E+06
 -------------------------------------------------------------------------------
 # multiplications                             14
 max memory usage/rank              17.499103E+09
 # max total images/rank                        1
 # max 3D layers                                1
 # MPI messages exchanged                       0
 -------------------------------------------------------------------------------
 -                                                                             -
 -                      DBCSR MESSAGE PASSING PERFORMANCE                      -
 -                                                                             -
 -------------------------------------------------------------------------------
 ROUTINE             CALLS      AVE VOLUME [Bytes]
 MP_Bcast                5                     12.
 MP_Allreduce           97                     12.
 MP_Alltoall           462                  84841.
 MP_ISend               56                     80.
 MP_IRecv               56                     80.
 -------------------------------------------------------------------------------

 -------------------------------------------------------------------------------
 -                                                                             -
 -                                GRID STATISTICS                              -
 -                                                                             -
 -------------------------------------------------------------------------------
 LP    KERNEL             BACKEND                              COUNT     PERCENT
 3     collocate ortho    CPU                                   1440      13.75%
 6     collocate ortho    CPU                                   1440      13.75%
 3     integrate ortho    CPU                                   1344      12.84%
 6     integrate ortho    CPU                                   1344      12.84%
 4     collocate ortho    CPU                                    720       6.88%
 7     collocate ortho    CPU                                    720       6.88%
 4     integrate ortho    CPU                                    672       6.42%
 7     integrate ortho    CPU                                    672       6.42%
 0     collocate ortho    CPU                                    315       3.01%
 0     integrate ortho    CPU                                    294       2.81%
 5     collocate ortho    CPU                                    240       2.29%
 8     collocate ortho    CPU                                    240       2.29%
 5     integrate ortho    CPU                                    224       2.14%
 8     integrate ortho    CPU                                    224       2.14%
 1     collocate ortho    CPU                                    180       1.72%
 1     integrate ortho    CPU                                    168       1.60%
 2     collocate ortho    CPU                                     60       0.57%
 2     integrate ortho    CPU                                     56       0.53%
 6     collocate general  CPU                                     56       0.53%
 6     integrate general  CPU                                     56       0.53%
 0     collocate general  CPU                                      4       0.04%
 -------------------------------------------------------------------------------

 -------------------------------------------------------------------------------
 -                                                                             -
 -                          OFFLOAD MEMPOOL STATISTICS                         -
 -                                                                             -
 -------------------------------------------------------------------------------
 Memory consumption                Number of allocations  Used [MiB]  Size [MiB]
 Device                                                7         101         101
 Host                                                  7         101         101
 -------------------------------------------------------------------------------

 MEMORY| Estimated peak process memory [MiB]                                2820

 -------------------------------------------------------------------------------
 -                                                                             -
 -                         MESSAGE PASSING PERFORMANCE                         -
 -                                                                             -
 -------------------------------------------------------------------------------

 ROUTINE             CALLS      AVE VOLUME [Bytes]
 MP_Group                5
 MP_Bcast              140                  48528.
 MP_Allreduce          384                  25218.
 MP_Sync                18
 MP_comm_split          14
 -------------------------------------------------------------------------------


 -------------------------------------------------------------------------------
 -                                                                             -
 -                           R E F E R E N C E S                               -
 -                                                                             -
 -------------------------------------------------------------------------------
 
 CP2K version 2026.1 (Development Version), the CP2K developers group (2026).
 CP2K is freely available from https://www.cp2k.org/ .
 
 M. Iannuzzi, J. Wilhelm, F. Stein, A. Bussy, H. Elgabarty, D. Golze, A. Hehn, 
 M. Graml, S. Marek, B. Sertcan Gökmen, C. Schran, H. Forbert, R. Z. 
 Khaliullin, A. Kozhevnikov, M. Taillefumier, R. Meli, V. V. Rybkin, M. Brehm, 
 R. Schade, O. Schütt, J. V. Pototschnig, H. Mirhosseini, A. Knüpfer, D. Marx, 
 M. Krack, J. Hutter, T. D. Kühne.
 J. Phys. Chem. B 130, 1237-1310 (2026).
 The CP2K Program Package Made Simple.
 https://doi.org/10.1021/acs.jpcb.5c05851

 T. D. Kühne, M. Iannuzzi, M. Del Ben, V. V. Rybkin, P. Seewald, F. Stein, T. 
 Laino, R. Z. Khaliullin, O. Schütt, F. Schiffmann, D. Golze, J. Wilhelm, S. 
 Chulkov, M. H. Bani-Hashemian, V. Weber, U. Borstnik, M. Taillefumier, A. S. 
 Jakobovits, A. Lazzaro, H. Pabst, T. Müller, R. Schade, M. Guidon, S. 
 Andermatt, N. Holmberg, G. K. Schenter, A. Hehn, A. Bussy, F. Belleflamme, G. 
 Tabacchi, A. Glöß, M. Lass, I. Bethune, C. J. Mundy, C. Plessl, M. Watkins, 
 J. VandeVondele, M. Krack, J. Hutter.
 J. Chem. Phys. 152, 194103 (2020).
 CP2K: An electronic structure and molecular dynamics software package - 
 Quickstep: Efficient and accurate electronic structure calculations.
 https://doi.org/10.1063/5.0007045

 O. Schuett, P. Messmer, J. Hutter, J. VandeVondele.
 Electronic Structure Calculations on Graphics Processing Units, 173-190 (2016).
 GPU-Accelerated Sparse Matrix-Matrix Multiplication for Linear Scaling Density 
 Functional Theory.
 https://doi.org/10.1002/9781118670712.ch8

 A. Heinecke, G. Henry, M. Hutchinson, H. Pabst.
 Proceedings of Intl. Supercomputing Conference, 981-991 (2016).
 LIBXSMM: Accelerating Small Matrix Multiplications by Runtime Code Generation.
 https://doi.org/10.1109/SC.2016.83

 U. Borstnik, J. VandeVondele, V. Weber, J. Hutter.
 Parallel Comput. 40, 47-58 (2014).
 Sparse matrix multiplication: The distributed block-compressed sparse row 
 library.
 https://doi.org/10.1016/j.parco.2014.03.012

 J. VandeVondele, J. Hutter.
 J. Chem. Phys. 127, 114105 (2007).
 Gaussian basis sets for accurate calculations on molecular systems in gas and 
 condensed phases.
 https://doi.org/10.1063/1.2770708

 M. Frigo, S. G. Johnson.
 Proc. IEEE 93, 216-231 (2005).
 The design and implementation of FFTW3.
 https://doi.org/10.1109/JPROC.2004.840301

 M. Krack, M. Parrinello.
 Phys. Chem. Chem. Phys. 2, 2105-2112 (2000).
 All-electron ab-initio molecular dynamics.
 https://doi.org/10.1039/b001167n

 G. Lippert, J. Hutter, M. Parrinello.
 Theor. Chem. Acc. 103, 124-140 (1999).
 The Gaussian and augmented-plane-wave density functional method for ab initio 
 molecular dynamics simulations.
 https://doi.org/10.1007/s002140050523

 G. J. Martyna, M. E. Tuckerman.
 J. Chem. Phys. 110, 2810-2821 (1999).
 A reciprocal space based method for treating long range interactions in ab 
 initio and force-field-based calculations in clusters.
 https://doi.org/10.1063/1.477923


 -------------------------------------------------------------------------------
 -                                                                             -
 -                                T I M I N G                                  -
 -                                                                             -
 -------------------------------------------------------------------------------
 SUBROUTINE                       CALLS  ASD         SELF TIME        TOTAL TIME
                                MAXIMUM       AVERAGE  MAXIMUM  AVERAGE  MAXIMUM
 CP2K                                 1  1.0    0.253    0.253   26.025   26.025
 qs_energies                          1  2.0    0.000    0.000   21.950   21.950
 scf_env_do_scf                       1  3.0    0.000    0.000   21.438   21.438
 scf_env_do_scf_inner_loop           14  4.0    0.001    0.001   21.438   21.438
 qs_ks_update_qs_env                 14  5.0    0.000    0.000   16.858   16.858
 rebuild_ks_matrix                   14  6.0    0.000    0.000   16.857   16.857
 qs_ks_build_kohn_sham_matrix        14  7.0    6.719    6.719   16.857   16.857
 fft_wrap_pw1pw2                    160  9.2    0.001    0.001   11.161   11.161
 fft_wrap_pw1pw2_300                 72 10.0    1.738    1.738    9.758    9.758
 fft3d_s                            161 11.2    5.205    5.205    5.208    5.208
 qs_rho_update_rho_low               15  5.0    0.000    0.000    4.978    4.978
 calculate_rho_elec                  15  6.0    0.180    0.180    4.961    4.961
 density_rs2pw                       15  7.0    0.000    0.000    4.543    4.543
 qs_init_subsys                       1  2.0    0.001    0.001    3.787    3.787
 qs_env_setup                         1  3.0    0.000    0.000    3.759    3.759
 qs_env_rebuild_pw_env                2  3.5    0.000    0.000    3.759    3.759
 pw_env_rebuild                       1  5.0    0.000    0.000    3.759    3.759
 pw_grid_setup                        5  6.0    0.000    0.000    3.756    3.756
 pw_grid_setup_internal               5  7.0    0.036    0.036    3.756    3.756
 pw_grid_sort                         5  8.0    2.749    2.749    3.323    3.323
 prepare_gapw_den                    14  8.0    0.000    0.000    2.996    2.996
 sum_up_and_integrate                14  8.0    0.000    0.000    2.735    2.735
 integrate_v_rspace                  14  9.0    0.001    0.001    2.735    2.735
 pw_gather_s                         89 10.8    2.556    2.556    2.556    2.556
 put_rho0_on_grid                    14  9.0    0.171    0.171    2.444    2.444
 pw_poisson_solve                    14  8.0    0.000    0.000    2.401    2.401
 potential_pw2rs                     14 10.0    0.010    0.010    2.355    2.355
 pw_scatter_s                        71 11.8    1.298    1.298    1.298    1.298
 pw_poisson_rebuild                  14  9.0    0.023    0.023    1.198    1.198
 MTin_create_screen_fn                1 10.0    0.053    0.053    1.175    1.175
 fft_wrap_pw1pw2_600                  1 12.0    0.103    0.103    0.845    0.845
 pw_poisson_set                      15  8.8    0.000    0.000    0.697    0.697
 pw_copy                            169  9.9    0.583    0.583    0.583    0.583
 sort_shells                          5  9.0    0.574    0.574    0.574    0.574
 -------------------------------------------------------------------------------

 The number of warnings for this run is : 0
 
 -------------------------------------------------------------------------------
  **** **** ******  **  PROGRAM ENDED AT                 2026-05-22 02:06:07.412
 ***** ** ***  *** **   PROGRAM RAN ON                                spark-c86c
 **    ****   ******    PROGRAM RAN BY                                  kuehne88
 ***** **    ** ** **   PROGRAM PROCESS ID                               1994618
  **** **  *******  **  PROGRAM STOPPED IN /home/kuehne88/skala-molopt-bench/run
                                           s/NH3_GAPW_AE_gauxc_pbe_force_minus
