&GLOBAL
  PRINT_LEVEL MEDIUM
  PROJECT_NAME b0baaec3defcc34c32e00aa368ef7d6f425898de
  RUN_TYPE ENERGY
&END GLOBAL
&FORCE_EVAL
  METHOD Quickstep
  &DFT
    BASIS_SET_FILE_NAME BASIS_MOLOPT_UZH
    POTENTIAL_FILE_NAME POTENTIAL_UZH
    CHARGE -1
    MULTIPLICITY 1
    UKS FALSE
    &MGRID
      CUTOFF 1000
      REL_CUTOFF 60
      NGRIDS 4
    &END MGRID
    &POISSON
      PERIODIC NONE
      POISSON_SOLVER ANALYTIC
    &END POISSON
    &QS
      EPS_DEFAULT 1e-10
    &END QS
    &SCF
      EPS_SCF 1e-05
      MAX_SCF 100
      SCF_GUESS ATOMIC
      &DIAGONALIZATION
      &END DIAGONALIZATION
      &MIXING
        METHOD DIRECT_P_MIXING
        ALPHA 0.4
        NMIXING 2
      &END MIXING
    &END SCF
    &XC
      &XC_FUNCTIONAL
        &GAUXC
          FUNCTIONAL PBE
          MODEL aug-s0-funv2-cpu.fun
          GRID FINE
          PRUNING_SCHEME ROBUST
          RADIAL_QUADRATURE MURAKNOWLES
        &END GAUXC
      &END XC_FUNCTIONAL
    &END XC
    &PRINT
      &MO
        ENERGIES T
        OCCNUMS  T
        &EACH
          QS_SCF 0
        &END
      &END
    &END
  &END DFT
  &SUBSYS
    &CELL
      ABC 30.0000 30.0000 30.0000
      ALPHA_BETA_GAMMA 90.0000 90.0000 90.0000
      PERIODIC NONE
    &END CELL
    &TOPOLOGY
      &CENTER_COORDINATES
      &END
    &END TOPOLOGY
    &COORD
      Cl        0.0000000000        0.0000000000        0.0000000000
    &END COORD
    &KIND Cl
      BASIS_SET TZVP-MOLOPT-SCAN-GTH-q7
      POTENTIAL GTH-SCAN-q7
    &END KIND
  &END SUBSYS
&END FORCE_EVAL

================================================================================
=== END OF CP2K INPUT / START OF CP2K OUTPUT ===
================================================================================

 DBCSR| CPU Multiplication driver                                           BLAS (U)
 DBCSR| Multrec recursion limit                                              512 (U)
 DBCSR| Multiplication stack size                                           1000 (D)
 DBCSR| Maximum elements for images                                    UNLIMITED (U)
 DBCSR| Multiplicative factor virtual images                                   1 (U)
 DBCSR| Use multiplication densification                                       T (D)
 DBCSR| Multiplication size stacks                                             3 (U)
 DBCSR| Use memory pool for CPU allocation                                     F (U)
 DBCSR| Number of 3D layers                                               SINGLE (U)
 DBCSR| Use MPI memory allocation                                              F (U)
 DBCSR| Use RMA algorithm                                                      F (U)
 DBCSR| Use Communication thread                                               T (U)
 DBCSR| Communication thread load                                             87 (D)
 DBCSR| MPI: My process id                                                     0
 DBCSR| MPI: Number of processes                                              16
 DBCSR| OMP: Current number of threads                                         1
 DBCSR| OMP: Max number of threads                                             1
 DBCSR| Split modifier for TAS multiplication algorithm                  1.0E+00 (U)


  **** **** ******  **  PROGRAM STARTED AT               2026-08-13 11:48:59.305
 ***** ** ***  *** **   PROGRAM STARTED ON        eb3791e2ef3243b6944400b65b9622
 **    ****   ******    PROGRAM STARTED BY                             <unknown>
 ***** **    ** ** **   PROGRAM PROCESS ID                                   539
  **** **  *******  **  PROGRAM STARTED IN                    /tmp/cp2k_lyec8oiq

 CP2K| version string:                                       CP2K version 2026.2
 CP2K| source code revision number:                                  git:c92cc08
 CP2K| cp2kflags: omp libint fftw3 libxc gauxc gauxc_mpi gauxc_onedft gauxc_host
 CP2K|             parallel scalapack mpi_f08 spglib sirius libtorch hdf5
 CP2K| is freely available from                            https://www.cp2k.org/
 CP2K| Program compiled at                                   2026-08-13 02:05:42
 CP2K| Program compiled on                                                      
 CP2K| Program compiled for                                               x86_64
 CP2K| Data directory path                             /opt/cp2k/share/cp2k/data
 CP2K| Input file name                                            cp2k_input.inp

 GLOBAL| Force Environment number                                              1
 GLOBAL| Basis set file name                                    BASIS_MOLOPT_UZH
 GLOBAL| Potential file name                                       POTENTIAL_UZH
 GLOBAL| MM Potential file name                                     MM_POTENTIAL
 GLOBAL| Coordinate file name                                      __STD_INPUT__
 GLOBAL| Method name                                                        CP2K
 GLOBAL| Project name                   b0baaec3defcc34c32e00aa368ef7d6f425898de
 GLOBAL| Run type                                                         ENERGY
 GLOBAL| FFT library                                                       FFTW3
 GLOBAL| Diagonalization library                                       ScaLAPACK
 GLOBAL| Cholesky decomposition library                                ScaLAPACK
 GLOBAL| DGEMM library                                                      BLAS
 GLOBAL| Direct generalized diagonalization requested                          F
 GLOBAL| Orthonormality check for eigenvectors                          DISABLED
 GLOBAL| Matrix multiplication library                                 ScaLAPACK
 GLOBAL| All-to-all communication in single precision                          F
 GLOBAL| FFTs using library dependent lengths                                  F
 GLOBAL| Grid backend                                                       AUTO
 GLOBAL| Global print level                                               MEDIUM
 GLOBAL| MPI I/O enabled                                                       T
 GLOBAL| Total number of message passing processes                            16
 GLOBAL| Number of distributed systems (nodes)                                 1
 GLOBAL| Number of threads for this process                                    1
 GLOBAL| This output is from process                                           0
 GLOBAL| OpenMP stack size per thread (OMP_STACKSIZE)                        16M
 GLOBAL| CPU model name                          AMD EPYC 9V74 80-Core Processor
 GLOBAL| CPUID                                                              1002

 MEMORY| system memory details [Kb]
 MEMORY|                        rank 0           min           max       average
 MEMORY| MemTotal            263924012     263924012     263924012     263924012
 MEMORY| MemFree             239137584     239137584     239137584     239137584
 MEMORY| Buffers                353028        353028        353028        353028
 MEMORY| Cached               17850200      17850200      17850200      17850200
 MEMORY| Slab                  1460120       1460120       1460120       1460120
 MEMORY| SReclaimable          1119668       1119668       1119668       1119668
 MEMORY| MemLikelyFree       258460480     258460480     258460480     258460480


 *** Fundamental physical constants (SI units) ***

 *** Literature: B. J. Mohr and B. N. Taylor,
 ***             CODATA recommended values of the fundamental physical
 ***             constants: 2006, Web Version 5.1
 ***             http://physics.nist.gov/constants

 Speed of light in vacuum [m/s]                             2.99792458000000E+08
 Magnetic constant or permeability of vacuum [N/A**2]       1.25663706143592E-06
 Electric constant or permittivity of vacuum [F/m]          8.85418781762039E-12
 Planck constant (h) [J*s]                                  6.62606896000000E-34
 Planck constant (h-bar) [J*s]                              1.05457162825177E-34
 Elementary charge [C]                                      1.60217648700000E-19
 Electron mass [kg]                                         9.10938215000000E-31
 Electron g factor [ ]                                     -2.00231930436220E+00
 Proton mass [kg]                                           1.67262163700000E-27
 Fine-structure constant                                    7.29735253760000E-03
 Rydberg constant [1/m]                                     1.09737315685270E+07
 Avogadro constant [1/mol]                                  6.02214179000000E+23
 Boltzmann constant [J/K]                                   1.38065040000000E-23
 Atomic mass unit [kg]                                      1.66053878200000E-27
 Bohr radius [m]                                            5.29177208590000E-11

 *** Conversion factors ***

 [u] -> [a.u.]                                              1.82288848426455E+03
 [Angstrom] -> [Bohr] = [a.u.]                              1.88972613288564E+00
 [a.u.] = [Bohr] -> [Angstrom]                              5.29177208590000E-01
 [a.u.] -> [s]                                              2.41888432650478E-17
 [a.u.] -> [fs]                                             2.41888432650478E-02
 [a.u.] -> [J]                                              4.35974393937059E-18
 [a.u.] -> [N]                                              8.23872205491840E-08
 [a.u.] -> [K]                                              3.15774647902944E+05
 [a.u.] -> [kJ/mol]                                         2.62549961709828E+03
 [a.u.] -> [kcal/mol]                                       6.27509468713739E+02
 [a.u.] -> [Pa]                                             2.94210107994716E+13
 [a.u.] -> [bar]                                            2.94210107994716E+08
 [a.u.] -> [atm]                                            2.90362800883016E+08
 [a.u.] -> [eV]                                             2.72113838565563E+01
 [a.u.] -> [Hz]                                             6.57968392072181E+15
 [a.u.] -> [1/cm] (wave numbers)                            2.19474631370540E+05
 [a.u./Bohr**2] -> [1/cm]                                   5.14048714338585E+03
 

 CELL| Volume [angstrom^3]:                                         27000.000000
 CELL| Vector a [angstrom]:      30.000     0.000     0.000   |a| =    30.000000
 CELL| Vector b [angstrom]:       0.000    30.000     0.000   |b| =    30.000000
 CELL| Vector c [angstrom]:       0.000     0.000    30.000   |c| =    30.000000
 CELL| Angle (b,c), alpha [degree]:                                    90.000000
 CELL| Angle (a,c), beta  [degree]:                                    90.000000
 CELL| Angle (a,b), gamma [degree]:                                    90.000000
 CELL| Numerically orthorhombic:                                             YES
 CELL| Periodicity                                                          NONE

 CELL_REF| Volume [angstrom^3]:                                     27000.000000
 CELL_REF| Vector a [angstrom    30.000     0.000     0.000   |a| =    30.000000
 CELL_REF| Vector b [angstrom     0.000    30.000     0.000   |b| =    30.000000
 CELL_REF| Vector c [angstrom     0.000     0.000    30.000   |c| =    30.000000
 CELL_REF| Angle (b,c), alpha [degree]:                                90.000000
 CELL_REF| Angle (a,c), beta  [degree]:                                90.000000
 CELL_REF| Angle (a,b), gamma [degree]:                                90.000000
 CELL_REF| Numerically orthorhombic:                                         YES
 CELL_REF| Periodicity                                                      NONE

 GENERATE|  Preliminary Number of Bonds generated:                             0
 GENERATE|  Achieved consistency in connectivity generation.

 *******************************************************************************
 *******************************************************************************
 **                                                                           **
 **     #####                         ##              ##                      **
 **    ##   ##            ##          ##              ##                      **
 **   ##     ##                       ##            ######                    **
 **   ##     ##  ##   ##  ##   #####  ##  ##   ####   ##    #####    #####    **
 **   ##     ##  ##   ##  ##  ##      ## ##   ##      ##   ##   ##  ##   ##   **
 **   ##  ## ##  ##   ##  ##  ##      ####     ###    ##   ######   ######    **
 **    ##  ###   ##   ##  ##  ##      ## ##      ##   ##   ##       ##        **
 **     #######   #####   ##   #####  ##  ##  ####    ##    #####   ##        **
 **           ##                                                    ##        **
 **                                                                           **
 **                                                ... make the atoms dance   **
 **                                                                           **
 **            Copyright (C) by CP2K developers group (2000-2026)             **
 **                      J. Chem. Phys. 152, 194103 (2020)                    **
 **                                                                           **
 *******************************************************************************

 DFT| Spin restricted Kohn-Sham (RKS) calculation                            RKS
 DFT| Multiplicity                                                             1
 DFT| Number of spin states                                                    1
 DFT| Charge                                                                  -1
 DFT| Self-interaction correction (SIC)                                       NO
 DFT| Cutoffs: density                                              1.000000E-10
 DFT|          gradient                                             1.000000E-10
 DFT|          tau                                                  1.000000E-10
 DFT|          cutoff_smoothing_range                               0.000000E+00
 DFT| XC density smoothing                                                  NONE
 DFT| XC derivatives                                                          PW

 FUNCTIONAL| GAUXC:
 FUNCTIONAL| Functional computed by GauXC Skala model aug-s0-funv2-cpu.fun      


 QS| Method:                                                                 GPW
 QS| Density plane wave grid type                        NON-SPHERICAL FULLSPACE
 QS| Number of grid levels:                                                    4
 QS| Density cutoff [a.u.]:                                                500.0
 QS| Multi grid cutoff [a.u.]: 1) grid level                               500.0
 QS|                           2) grid level                               166.7
 QS|                           3) grid level                                55.6
 QS|                           4) grid level                                18.5
 QS| Grid level progression factor:                                          3.0
 QS| Relative density cutoff [a.u.]:                                        30.0
 QS| Interaction thresholds: eps_pgf_orb:                                1.0E-05
 QS|                         eps_filter_matrix:                          0.0E+00
 QS|                         eps_core_charge:                            1.0E-12
 QS|                         eps_rho_gspace:                             1.0E-10
 QS|                         eps_rho_rspace:                             1.0E-10
 QS|                         eps_gvg_rspace:                             1.0E-05
 QS|                         eps_ppl:                                    1.0E-02
 QS|                         eps_ppnl:                                   1.0E-07


 ATOMIC KIND INFORMATION

  1. Atomic kind: Cl                                    Number of atoms:       1

     Orbital Basis Set                                   TZVP-MOLOPT-SCAN-GTH-q7

       Number of orbital shell sets:                                           1
       Number of orbital shells:                                               7
       Number of primitive Cartesian functions:                                4
       Number of Cartesian basis functions:                                   18
       Number of spherical basis functions:                                   17
       Norm type:                                                              2

       Normalised Cartesian orbitals:

                        Set   Shell   Orbital            Exponent    Coefficient

                          1       1    2s                1.990311       0.553567
                                                         1.465019      -0.335082
                                                         0.406554      -0.193469
                                                         0.133703      -0.084795

                          1       2    3s                1.990311       0.542077
                                                         1.465019       0.196337
                                                         0.406554      -0.540548
                                                         0.133703       0.272824

                          1       3    4s                1.990311      -0.144377
                                                         1.465019      -1.031705
                                                         0.406554       0.087725
                                                         0.133703       0.058245

                          1       4    3px               1.990311       0.952589
                                                         1.465019      -0.976975
                                                         0.406554      -0.277977
                                                         0.133703      -0.041264
                          1       4    3py               1.990311       0.952589
                                                         1.465019      -0.976975
                                                         0.406554      -0.277977
                                                         0.133703      -0.041264
                          1       4    3pz               1.990311       0.952589
                                                         1.465019      -0.976975
                                                         0.406554      -0.277977
                                                         0.133703      -0.041264

                          1       5    4px               1.990311       0.721240
                                                         1.465019      -0.521030
                                                         0.406554      -0.232610
                                                         0.133703       0.147705
                          1       5    4py               1.990311       0.721240
                                                         1.465019      -0.521030
                                                         0.406554      -0.232610
                                                         0.133703       0.147705
                          1       5    4pz               1.990311       0.721240
                                                         1.465019      -0.521030
                                                         0.406554      -0.232610
                                                         0.133703       0.147705

                          1       6    5px               1.990311      -1.056793
                                                         1.465019      -2.017277
                                                         0.406554       0.200798
                                                         0.133703       0.007744
                          1       6    5py               1.990311      -1.056793
                                                         1.465019      -2.017277
                                                         0.406554       0.200798
                                                         0.133703       0.007744
                          1       6    5pz               1.990311      -1.056793
                                                         1.465019      -2.017277
                                                         0.406554       0.200798
                                                         0.133703       0.007744

                          1       7    4dx2              1.990311       0.501660
                                                         1.465019       0.640939
                                                         0.406554       0.258323
                                                         0.133703       0.006080
                          1       7    4dxy              1.990311       0.868900
                                                         1.465019       1.110139
                                                         0.406554       0.447429
                                                         0.133703       0.010530
                          1       7    4dxz              1.990311       0.868900
                                                         1.465019       1.110139
                                                         0.406554       0.447429
                                                         0.133703       0.010530
                          1       7    4dy2              1.990311       0.501660
                                                         1.465019       0.640939
                                                         0.406554       0.258323
                                                         0.133703       0.006080
                          1       7    4dyz              1.990311       0.868900
                                                         1.465019       1.110139
                                                         0.406554       0.447429
                                                         0.133703       0.010530
                          1       7    4dz2              1.990311       0.501660
                                                         1.465019       0.640939
                                                         0.406554       0.258323
                                                         0.133703       0.006080

       Atomic covalent radius [Angstrom]:                                  0.990

       Atomic van der Waals radius [Angstrom]:                             1.750

     GTH Potential information for                                   GTH-SCAN-q7

       Description:                       Goedecker-Teter-Hutter pseudopotential
                                           Goedecker et al., PRB 54, 1703 (1996)
                                          Hartwigsen et al., PRB 58, 3641 (1998)
                                                      Krack, TCA 114, 145 (2005)

       Gaussian exponent of the core charge distribution:               3.057284
       Electronic configuration (s p d ...):                       2   5   0   0

       Parameters of the local part of the GTH pseudopotential:

                          rloc        C1          C2          C3          C4
                        0.404406   -6.394753

       Parameters of the non-local part of the GTH pseudopotential:

                   l      r(l)      h(i,j,l)

                   0    0.339247   15.226939   -4.934521
                                   -4.934521    6.367374
                   1    0.377245    4.332916


 MOLECULE KIND INFORMATION


 All atoms are their own molecule, skipping detailed information


 TOTAL NUMBERS AND MAXIMUM NUMBERS

  Total number of            - Atomic kinds:                                   1
                             - Atoms:                                          1
                             - Shell sets:                                     1
                             - Shells:                                         7
                             - Primitive Cartesian functions:                  4
                             - Cartesian basis functions:                     18
                             - Spherical basis functions:                     17

  Maximum angular momentum of- Orbital basis functions:                        2
                             - Local part of the GTH pseudopotential:          0
                             - Non-local part of the GTH pseudopotential:      2


 MODULE QUICKSTEP: ATOMIC COORDINATES IN ANGSTROM

   Atom Kind Element         X             Y             Z       Z(eff)     Mass
      1    1 Cl   17     15.000000     15.000000     15.000000   7.0000  35.4530



 SCF PARAMETERS         Density guess:                                    ATOMIC
                        --------------------------------------------------------
                        max_scf:                                             100
                        max_scf_history:                                       0
                        max_diis:                                              4
                        --------------------------------------------------------
                        eps_scf:                                        1.00E-05
                        eps_scf_history:                                0.00E+00
                        eps_diis:                                       1.00E-01
                        eps_eigval:                                     1.00E-05
                        --------------------------------------------------------
                        level_shift [a.u.]:                             0.000000
                        --------------------------------------------------------
                        Mixing method:                           DIRECT_P_MIXING
                        --------------------------------------------------------
                        No outer SCF

 PW_GRID| Information for grid number                                          1
 PW_GRID| Grid distributed over                                    16 processors
 PW_GRID| Real space group dimensions                                    16    1
 PW_GRID| the grid is blocked:                                                NO
 PW_GRID| Cutoff [a.u.]                                                    500.0
 PW_GRID| spherical cutoff:                                                   NO
 PW_GRID|   Bounds   1           -288     287                Points:         576
 PW_GRID|   Bounds   2           -288     287                Points:         576
 PW_GRID|   Bounds   3           -288     287                Points:         576
 PW_GRID| Volume element (a.u.^3)  0.9534E-03     Volume (a.u.^3)    182205.0337
 PW_GRID| Grid span                                                    FULLSPACE
 PW_GRID|   Distribution                         Average         Max         Min
 PW_GRID|   G-Vectors                         11943936.0    11943936    11943936
 PW_GRID|   G-Rays                               20736.0       20736       20736
 PW_GRID|   Real Space Points                 11943936.0    11943936    11943936

 PW_GRID| Information for grid number                                          2
 PW_GRID| Number of the reference grid                                         1
 PW_GRID| Grid distributed over                                    16 processors
 PW_GRID| Real space group dimensions                                    16    1
 PW_GRID| the grid is blocked:                                                NO
 PW_GRID| Cutoff [a.u.]                                                    166.7
 PW_GRID| spherical cutoff:                                                   NO
 PW_GRID|   Bounds   1           -180     179                Points:         360
 PW_GRID|   Bounds   2           -180     179                Points:         360
 PW_GRID|   Bounds   3           -180     179                Points:         360
 PW_GRID| Volume element (a.u.^3)  0.3905E-02     Volume (a.u.^3)    182205.0337
 PW_GRID| Grid span                                                    FULLSPACE
 PW_GRID|   Distribution                         Average         Max         Min
 PW_GRID|   G-Vectors                          2916000.0     2916720     2915640
 PW_GRID|   G-Rays                                8100.0        8102        8099
 PW_GRID|   Real Space Points                  2916000.0     2980800     2851200

 PW_GRID| Information for grid number                                          3
 PW_GRID| Number of the reference grid                                         1
 PW_GRID| Grid distributed over                                    16 processors
 PW_GRID| Real space group dimensions                                    16    1
 PW_GRID| the grid is blocked:                                                NO
 PW_GRID| Cutoff [a.u.]                                                     55.6
 PW_GRID| spherical cutoff:                                                   NO
 PW_GRID|   Bounds   1            -96      95                Points:         192
 PW_GRID|   Bounds   2            -96      95                Points:         192
 PW_GRID|   Bounds   3            -96      95                Points:         192
 PW_GRID| Volume element (a.u.^3)  0.2574E-01     Volume (a.u.^3)    182205.0337
 PW_GRID| Grid span                                                    FULLSPACE
 PW_GRID|   Distribution                         Average         Max         Min
 PW_GRID|   G-Vectors                           442368.0      442560      442176
 PW_GRID|   G-Rays                                2304.0        2305        2303
 PW_GRID|   Real Space Points                   442368.0      442368      442368

 PW_GRID| Information for grid number                                          4
 PW_GRID| Number of the reference grid                                         1
 PW_GRID| Grid distributed over                                    16 processors
 PW_GRID| Real space group dimensions                                    16    1
 PW_GRID| the grid is blocked:                                                NO
 PW_GRID| Cutoff [a.u.]                                                     18.5
 PW_GRID| spherical cutoff:                                                   NO
 PW_GRID|   Bounds   1            -60      59                Points:         120
 PW_GRID|   Bounds   2            -60      59                Points:         120
 PW_GRID|   Bounds   3            -60      59                Points:         120
 PW_GRID| Volume element (a.u.^3)  0.1054         Volume (a.u.^3)    182205.0337
 PW_GRID| Grid span                                                    FULLSPACE
 PW_GRID|   Distribution                         Average         Max         Min
 PW_GRID|   G-Vectors                           108000.0      108240      107880
 PW_GRID|   G-Rays                                 900.0         902         899
 PW_GRID|   Real Space Points                   108000.0      115200      100800

 POISSON| Solver                                                        ANALYTIC
 POISSON| Periodicity                                                       NONE

 RS_GRID| Information for grid number                                          1
 RS_GRID|   Bounds   1           -288     287                Points:         576
 RS_GRID|   Bounds   2           -288     287                Points:         576
 RS_GRID|   Bounds   3           -288     287                Points:         576
 RS_GRID| Real space distribution over                                  4 groups
 RS_GRID| Real space distribution along direction                              2
 RS_GRID| Border size                                                         32
 RS_GRID| Real space distribution over                                  4 groups
 RS_GRID| Real space distribution along direction                              3
 RS_GRID| Border size                                                         32
 RS_GRID|   Distribution                         Average         Max         Min
 RS_GRID|   Planes                                 208.0         208         208
 RS_GRID|   Distribution                         Average         Max         Min
 RS_GRID|   Planes                                 208.0         208         208

 RS_GRID| Information for grid number                                          2
 RS_GRID|   Bounds   1           -180     179                Points:         360
 RS_GRID|   Bounds   2           -180     179                Points:         360
 RS_GRID|   Bounds   3           -180     179                Points:         360
 RS_GRID| Real space distribution over                                  4 groups
 RS_GRID| Real space distribution along direction                              2
 RS_GRID| Border size                                                         28
 RS_GRID| Real space distribution over                                  4 groups
 RS_GRID| Real space distribution along direction                              3
 RS_GRID| Border size                                                         28
 RS_GRID|   Distribution                         Average         Max         Min
 RS_GRID|   Planes                                 146.0         146         146
 RS_GRID|   Distribution                         Average         Max         Min
 RS_GRID|   Planes                                 146.0         146         146

 RS_GRID| Information for grid number                                          3
 RS_GRID|   Bounds   1            -96      95                Points:         192
 RS_GRID|   Bounds   2            -96      95                Points:         192
 RS_GRID|   Bounds   3            -96      95                Points:         192
 RS_GRID| Real space fully replicated
 RS_GRID| Group size                                                           1

 RS_GRID| Information for grid number                                          4
 RS_GRID|   Bounds   1            -60      59                Points:         120
 RS_GRID|   Bounds   2            -60      59                Points:         120
 RS_GRID|   Bounds   3            -60      59                Points:         120
 RS_GRID| Real space fully replicated
 RS_GRID| Group size                                                           1

 Extrapolation method: initial_guess

 Atomic guess: The first density matrix is obtained in terms of atomic orbitals
               and electronic configurations assigned to each atomic kind

 Guess for atomic kind: Cl

 Electronic structure
    Total number of core electrons                                         10.00
    Total number of valence electrons                                       7.00
    Total number of electrons                                              17.00
    Multiplicity                                                   not specified
    S   [  2.00  2.00] 2.00
    P   [  6.00] 5.00


 *******************************************************************************
                  Iteration          Convergence                     Energy [au]
 *******************************************************************************
                          1        0.168525E-01                 -14.779020970431
                          2        0.182680E-01                 -14.779082242678
                          3        0.150516E-03                 -14.779143853879
                          4        0.370067E-05                 -14.779143857326
                          5        0.317509E-08                 -14.779143857329

 Energy components [Hartree]           Total Energy ::          -14.779143857329
                                        Band Energy ::           -2.965247378479
                                     Kinetic Energy ::            5.572175315872
                                   Potential Energy ::          -20.351319173201
                                      Virial (-V/T) ::            3.652311354101
                                        Core Energy ::          -24.692790003969
                                          XC Energy ::           -2.744840862011
                                     Coulomb Energy ::           12.658487008651
                       Total Pseudopotential Energy ::          -30.323862198887
                       Local Pseudopotential Energy ::          -33.454909953544
                    Nonlocal Pseudopotential Energy ::            3.131047754657
                                        Confinement ::            0.588968790466

 Orbital energies  State     L     Occupation   Energy[a.u.]          Energy[eV]

                       1     0          2.000      -0.737137          -20.058527

                       1     1          5.000      -0.298195           -8.114286


 Total Electron Density at R=0:                                         0.000217
 Re-scaling the density matrix to get the right number of electrons
                  # Electrons              Trace(P)               Scaling factor
                            8                 7.000                        1.143

 Number of electrons:                                                          8
 Number of occupied orbitals:                                                  4
 Number of molecular orbitals:                                                 4

 Number of orbital functions:                                                 17
 Number of independent orbital functions:                                     17


 SCF WAVEFUNCTION OPTIMIZATION

  Step     Update method      Time    Convergence         Total energy    Change
  ------------------------------------------------------------------------------
     1 P_Mix/Diag. 0.40E+00    7.3     0.49522221       -15.1292931322 -1.51E+01
     2 P_Mix/Diag. 0.40E+00   10.5     0.21106116       -15.1044150439  2.49E-02
     3 P_Mix/Diag. 0.40E+00   10.3     0.12469602       -15.0831283425  2.13E-02
     4 P_Mix/Diag. 0.40E+00   10.3     0.07563002       -15.0741718618  8.96E-03
     5 P_Mix/Diag. 0.40E+00   10.1     0.03682463       -15.0634259190  1.07E-02
     6 DIIS/Diag.  0.28E-01   10.2     0.02672636       -15.0608950385  2.53E-03
     7 DIIS/Diag.  0.77E-01   10.4     0.00162677       -15.0560561609  4.84E-03
     8 DIIS/Diag.  0.81E-01   10.2     0.01898912       -15.0560404042  1.58E-05
     9 P_Mix/Diag. 0.40E+00   10.2     0.02214084       -15.0561925144 -1.52E-04
    10 P_Mix/Diag. 0.40E+00   10.3     0.03876786       -15.0576105486 -1.42E-03
    11 P_Mix/Diag. 0.40E+00   10.3     0.01544950       -15.0525070021  5.10E-03
    12 DIIS/Diag.  0.69E-01   10.3     0.01024064       -15.0542112694 -1.70E-03
    13 P_Mix/Diag. 0.40E+00   10.2     0.04137942       -15.0579372327 -3.73E-03
    14 P_Mix/Diag. 0.40E+00   10.3     0.01516395       -15.0525599973  5.38E-03
    15 DIIS/Diag.  0.61E-01   10.4     0.00582209       -15.0541914455 -1.63E-03
    16 P_Mix/Diag. 0.40E+00   10.3     0.02567181       -15.0564307770 -2.24E-03
    17 P_Mix/Diag. 0.40E+00   10.2     0.02853902       -15.0564096708  2.11E-05
    18 P_Mix/Diag. 0.40E+00   10.2     0.02059437       -15.0544960176  1.91E-03
    19 P_Mix/Diag. 0.40E+00   10.3     0.02967838       -15.0569943330 -2.50E-03
    20 P_Mix/Diag. 0.40E+00   10.2     0.01490725       -15.0533430232  3.65E-03
    21 P_Mix/Diag. 0.40E+00   10.2     0.03375400       -15.0552661415 -1.92E-03
    22 P_Mix/Diag. 0.40E+00   10.2     0.01235759       -15.0539468605  1.32E-03
    23 P_Mix/Diag. 0.40E+00   10.2     0.03089505       -15.0557347008 -1.79E-03
    24 P_Mix/Diag. 0.40E+00   10.2     0.01697044       -15.0535079210  2.23E-03
    25 P_Mix/Diag. 0.40E+00   10.2     0.03777185       -15.0565978707 -3.09E-03
    26 P_Mix/Diag. 0.40E+00   10.2     0.01377345       -15.0528250262  3.77E-03
    27 DIIS/Diag.  0.27E-01   10.2     0.01524378       -15.0545275840 -1.70E-03
    28 P_Mix/Diag. 0.40E+00   10.2     0.04472691       -15.0581392790 -3.61E-03
    29 P_Mix/Diag. 0.40E+00   10.2     0.01525435       -15.0528873606  5.25E-03
    30 DIIS/Diag.  0.15E-01   10.2     0.01884389       -15.0545147284 -1.63E-03
    31 P_Mix/Diag. 0.40E+00   10.2     0.02565217       -15.0525693053  1.95E-03
    32 DIIS/Diag.  0.13E-01   10.2     0.01595430       -15.0541482848 -1.58E-03
    33 P_Mix/Diag. 0.40E+00   10.3     0.04309637       -15.0581362849 -3.99E-03
    34 P_Mix/Diag. 0.40E+00   10.2     0.01576368       -15.0528494719  5.29E-03
    35 DIIS/Diag.  0.72E-01   10.3     0.02804927       -15.0544402882 -1.59E-03
    36 DIIS/Diag.  0.73E-01   10.2     0.01728278       -15.0564203559 -1.98E-03
    37 P_Mix/Diag. 0.40E+00   10.2     0.02501058       -15.0571846766 -7.64E-04
    38 P_Mix/Diag. 0.40E+00   10.2     0.03106568       -15.0558093139  1.38E-03
    39 P_Mix/Diag. 0.40E+00   10.2     0.01430090       -15.0548782448  9.31E-04
    40 P_Mix/Diag. 0.40E+00   10.2     0.03381419       -15.0570817653 -2.20E-03
    41 P_Mix/Diag. 0.40E+00   10.2     0.01508157       -15.0528213867  4.26E-03
    42 P_Mix/Diag. 0.40E+00   10.3     0.02344041       -15.0546016198 -1.78E-03
    43 P_Mix/Diag. 0.40E+00   10.3     0.03806850       -15.0559822227 -1.38E-03
    44 P_Mix/Diag. 0.40E+00   10.3     0.01481571       -15.0521738564  3.81E-03
    45 P_Mix/Diag. 0.40E+00   10.3     0.02288990       -15.0541986058 -2.02E-03
    46 P_Mix/Diag. 0.40E+00   10.3     0.03940879       -15.0558766908 -1.68E-03
    47 P_Mix/Diag. 0.40E+00   10.3     0.01493647       -15.0517982952  4.08E-03
    48 DIIS/Diag.  0.85E-01   10.2     0.00842331       -15.0538666459 -2.07E-03
    49 P_Mix/Diag. 0.40E+00   10.3     0.02686298       -15.0586127174 -4.75E-03
    50 P_Mix/Diag. 0.40E+00   10.4     0.01540120       -15.0546574417  3.96E-03
    51 P_Mix/Diag. 0.40E+00   10.4     0.04339200       -15.0564626733 -1.81E-03
    52 P_Mix/Diag. 0.40E+00   10.3     0.01408218       -15.0527100174  3.75E-03
    53 DIIS/Diag.  0.25E-01   10.3     0.01200015       -15.0544543195 -1.74E-03
    54 DIIS/Diag.  0.30E-01   10.2     0.00590786       -15.0587838467 -4.33E-03
    55 P_Mix/Diag. 0.40E+00   10.3     0.03718967       -15.0581279064  6.56E-04
    56 P_Mix/Diag. 0.40E+00   10.2     0.01349286       -15.0539659023  4.16E-03
    57 DIIS/Diag.  0.56E-01   10.2     0.01754959       -15.0553455784 -1.38E-03
    58 P_Mix/Diag. 0.40E+00   10.3     0.02528786       -15.0563482202 -1.00E-03
    59 P_Mix/Diag. 0.40E+00   10.2     0.05058270       -15.0575334939 -1.19E-03
    60 P_Mix/Diag. 0.40E+00   10.2     0.04313281       -15.0548151316  2.72E-03
    61 P_Mix/Diag. 0.40E+00   10.2     0.02526029       -15.0554541921 -6.39E-04
    62 P_Mix/Diag. 0.40E+00   10.2     0.03620051       -15.0552654493  1.89E-04
    63 P_Mix/Diag. 0.40E+00   10.2     0.01873986       -15.0543268511  9.39E-04
    64 P_Mix/Diag. 0.40E+00   10.2     0.04425394       -15.0566779021 -2.35E-03
    65 P_Mix/Diag. 0.40E+00   10.2     0.01649959       -15.0523936642  4.28E-03
    66 P_Mix/Diag. 0.40E+00   10.2     0.03338874       -15.0543341242 -1.94E-03
    67 P_Mix/Diag. 0.40E+00   10.2     0.03823681       -15.0560826280 -1.75E-03
    68 P_Mix/Diag. 0.40E+00   10.3     0.01546669       -15.0520973000  3.99E-03
    69 P_Mix/Diag. 0.40E+00   10.3     0.02219263       -15.0541202925 -2.02E-03
    70 P_Mix/Diag. 0.40E+00   10.2     0.03642536       -15.0561847075 -2.06E-03
    71 P_Mix/Diag. 0.40E+00   10.3     0.01535186       -15.0522884333  3.90E-03
    72 P_Mix/Diag. 0.40E+00   10.4     0.02334796       -15.0542746347 -1.99E-03
    73 P_Mix/Diag. 0.40E+00   10.3     0.03842863       -15.0558516659 -1.58E-03
    74 P_Mix/Diag. 0.40E+00   10.4     0.01520578       -15.0520157054  3.84E-03
    75 P_Mix/Diag. 0.40E+00   10.2     0.02239051       -15.0540781001 -2.06E-03
    76 P_Mix/Diag. 0.40E+00   10.2     0.03951748       -15.0560764496 -2.00E-03
    77 P_Mix/Diag. 0.40E+00   10.2     0.01522209       -15.0517988546  4.28E-03
    78 DIIS/Diag.  0.79E-01   10.3     0.01030045       -15.0538352370 -2.04E-03
    79 P_Mix/Diag. 0.40E+00   10.3     0.03734371       -15.0577488881 -3.91E-03
    80 P_Mix/Diag. 0.40E+00   10.4     0.01501088       -15.0533914904  4.36E-03
    81 P_Mix/Diag. 0.40E+00   10.2     0.02551299       -15.0550037703 -1.61E-03
    82 P_Mix/Diag. 0.40E+00   10.2     0.03065177       -15.0556732361 -6.69E-04
    83 P_Mix/Diag. 0.40E+00   10.2     0.02128354       -15.0536769718  2.00E-03
    84 P_Mix/Diag. 0.40E+00   10.2     0.04621925       -15.0560815388 -2.40E-03
    85 P_Mix/Diag. 0.40E+00   10.3     0.02682260       -15.0539147471  2.17E-03
    86 P_Mix/Diag. 0.40E+00   10.3     0.03168046       -15.0551955900 -1.28E-03
    87 P_Mix/Diag. 0.40E+00   10.3     0.02777751       -15.0543667760  8.29E-04
    88 P_Mix/Diag. 0.40E+00   10.4     0.03032225       -15.0549335702 -5.67E-04
    89 P_Mix/Diag. 0.40E+00   10.3     0.02516184       -15.0543029085  6.31E-04
    90 P_Mix/Diag. 0.40E+00   10.3     0.02587770       -15.0551745811 -8.72E-04
    91 P_Mix/Diag. 0.40E+00   10.2     0.03752059       -15.0545006804  6.74E-04
    92 P_Mix/Diag. 0.40E+00   10.2     0.04042570       -15.0548213162 -3.21E-04
    93 P_Mix/Diag. 0.40E+00   10.3     0.03738052       -15.0546430811  1.78E-04
    94 P_Mix/Diag. 0.40E+00   10.2     0.02144894       -15.0542183540  4.25E-04
    95 P_Mix/Diag. 0.40E+00   10.2     0.04422365       -15.0558374989 -1.62E-03
    96 P_Mix/Diag. 0.40E+00   10.2     0.02212344       -15.0535985334  2.24E-03
    97 P_Mix/Diag. 0.40E+00   10.3     0.04365848       -15.0562034454 -2.60E-03
    98 P_Mix/Diag. 0.40E+00   10.3     0.02160420       -15.0531898705  3.01E-03
    99 P_Mix/Diag. 0.40E+00   10.3     0.04192592       -15.0553998753 -2.21E-03
   100 P_Mix/Diag. 0.40E+00   10.3     0.03047964       -15.0543077806  1.09E-03

  Leaving inner SCF loop after reaching   100 steps.


  Electronic density on regular grids:         -8.0000000000       -0.0000000000
  Core density on regular grids:                6.9999999994       -0.0000000006
  Total charge density on r-space grids:       -1.0000000006
  Total charge density g-space grids:          -1.0000000006

  Overlap energy of the core charge distribution:               0.00000000000000
  Self energy of the core charge distribution:                -34.18015362886452
  Core Hamiltonian energy:                                      7.89010920921017
  Hartree energy:                                              14.39197734913337
  Exchange-correlation energy:                                 -3.15624071008264

  Total energy:                                               -15.05430778060362

 *******************************************************************************
 *   ___                                                                       *
 *  /   \                                                                      *
 * [ABORT]                                                                     *
 *  \___/     SCF run NOT converged. To continue the calculation regardless,   *
 *    |             please set the keyword IGNORE_CONVERGENCE_FAILURE.         *
 *  O/|                                                                        *
 * /| |                                                                        *
 * / \                                                            qs_scf.F:702 *
 *******************************************************************************


 ===== Routine Calling Stack ===== 

            3 scf_env_do_scf
            2 qs_energies
            1 CP2K
