&GLOBAL
  PRINT_LEVEL MEDIUM
  PROJECT_NAME 201f3e4ae68c81514a7a6f7ac49fdc15588c08d6
  RUN_TYPE ENERGY
&END GLOBAL
&FORCE_EVAL
  METHOD Quickstep
  &DFT
    BASIS_SET_FILE_NAME BASIS_MOLOPT_UZH
    POTENTIAL_FILE_NAME POTENTIAL_UZH
    CHARGE 0
    MULTIPLICITY 1
    UKS FALSE
    &MGRID
      CUTOFF 1000
      REL_CUTOFF 60
      NGRIDS 4
    &END MGRID
    &POISSON
      PERIODIC NONE
      POISSON_SOLVER ANALYTIC
    &END POISSON
    &QS
      EPS_DEFAULT 1e-10
    &END QS
    &SCF
      EPS_SCF 1e-05
      MAX_SCF 100
      SCF_GUESS ATOMIC
      &DIAGONALIZATION
      &END DIAGONALIZATION
      &MIXING
        METHOD DIRECT_P_MIXING
        ALPHA 0.4
        NMIXING 2
      &END MIXING
    &END SCF
    &XC
      &XC_FUNCTIONAL
        &GAUXC
          FUNCTIONAL PBE
          MODEL aug-s0-funv2-cpu.fun
          GRID FINE
          PRUNING_SCHEME ROBUST
          RADIAL_QUADRATURE MURAKNOWLES
        &END GAUXC
      &END XC_FUNCTIONAL
    &END XC
    &PRINT
      &MO
        ENERGIES T
        OCCNUMS  T
        &EACH
          QS_SCF 0
        &END
      &END
    &END
  &END DFT
  &SUBSYS
    &CELL
      ABC 39.0000 38.0000 34.0000
      ALPHA_BETA_GAMMA 90.0000 90.0000 90.0000
      PERIODIC NONE
    &END CELL
    &TOPOLOGY
      &CENTER_COORDINATES
      &END
    &END TOPOLOGY
    &COORD
      C       -0.7922199994       -2.0306400003       -0.0243799984
      C        0.5617499995       -1.7642599978       -0.4871099984
      C        1.1775900010       -0.5055499986       -0.5795800012
      C       -0.7685899985        1.1311800007        0.3693599991
      C       -1.8014100002        0.2184600003        0.6380100025
      C       -1.7562600026       -1.2225999995        0.4355999999
      C       -3.0114300021        0.7168899989        1.1568100004
      C       -3.2181600011        2.0581899978        1.4114900006
      C       -2.1966000015        2.9594300013        1.1395699996
      C       -1.0004799979        2.4854600022        0.6253799977
      C        2.4799499974       -0.4452299985       -1.0824599991
      C        3.1896000001       -1.5733799993       -1.4610100018
      C        2.5906800007       -2.8215099999       -1.3511199986
      C        1.2961299984       -2.9001899991       -0.8775000026
      C        0.6258800014        0.8444800008       -0.1578699982
      H       -1.0558799993       -3.0814699980       -0.0706700025
      H       -2.6793599992       -1.7185599999        0.7151100002
      H       -3.8042700014        0.0102199995        1.3650900018
      H       -4.1615500014        2.3976299999        1.8170900025
      H       -2.3264700005        4.0161500007        1.3308800022
      H       -0.2032199983        3.1893999976        0.4164899979
      H        2.9548700019        0.5250099983       -1.1688399976
      H        4.1980300019       -1.4769600009       -1.8404299984
      H        3.1219399999       -3.7183999974       -1.6396799982
      H        0.8187400011       -3.8678599991       -0.7940099995
      H        1.3166199993        1.2222599978        0.6034099993
      H        0.7731099974        1.5158500014       -1.0086199975
    &END COORD
    &KIND C
      BASIS_SET TZVP-MOLOPT-SCAN-GTH-q4
      POTENTIAL GTH-SCAN-q4
    &END KIND
    &KIND H
      BASIS_SET TZVP-MOLOPT-SCAN-GTH-q1
      POTENTIAL GTH-SCAN-q1
    &END KIND
  &END SUBSYS
&END FORCE_EVAL

================================================================================
=== END OF CP2K INPUT / START OF CP2K OUTPUT ===
================================================================================

 DBCSR| CPU Multiplication driver                                           BLAS (U)
 DBCSR| Multrec recursion limit                                              512 (U)
 DBCSR| Multiplication stack size                                           1000 (D)
 DBCSR| Maximum elements for images                                    UNLIMITED (U)
 DBCSR| Multiplicative factor virtual images                                   1 (U)
 DBCSR| Use multiplication densification                                       T (D)
 DBCSR| Multiplication size stacks                                             3 (U)
 DBCSR| Use memory pool for CPU allocation                                     F (U)
 DBCSR| Number of 3D layers                                               SINGLE (U)
 DBCSR| Use MPI memory allocation                                              F (U)
 DBCSR| Use RMA algorithm                                                      F (U)
 DBCSR| Use Communication thread                                               T (U)
 DBCSR| Communication thread load                                             87 (D)
 DBCSR| MPI: My process id                                                     0
 DBCSR| MPI: Number of processes                                              16
 DBCSR| OMP: Current number of threads                                         1
 DBCSR| OMP: Max number of threads                                             1
 DBCSR| Split modifier for TAS multiplication algorithm                  1.0E+00 (U)


  **** **** ******  **  PROGRAM STARTED AT               2026-08-13 12:07:08.254
 ***** ** ***  *** **   PROGRAM STARTED ON        eb3791e2ef3243b6944400b65b9622
 **    ****   ******    PROGRAM STARTED BY                             <unknown>
 ***** **    ** ** **   PROGRAM PROCESS ID                                   547
  **** **  *******  **  PROGRAM STARTED IN                    /tmp/cp2k_wolq64gj

 CP2K| version string:                                       CP2K version 2026.2
 CP2K| source code revision number:                                  git:c92cc08
 CP2K| cp2kflags: omp libint fftw3 libxc gauxc gauxc_mpi gauxc_onedft gauxc_host
 CP2K|             parallel scalapack mpi_f08 spglib sirius libtorch hdf5
 CP2K| is freely available from                            https://www.cp2k.org/
 CP2K| Program compiled at                                   2026-08-13 02:05:42
 CP2K| Program compiled on                                                      
 CP2K| Program compiled for                                               x86_64
 CP2K| Data directory path                             /opt/cp2k/share/cp2k/data
 CP2K| Input file name                                            cp2k_input.inp

 GLOBAL| Force Environment number                                              1
 GLOBAL| Basis set file name                                    BASIS_MOLOPT_UZH
 GLOBAL| Potential file name                                       POTENTIAL_UZH
 GLOBAL| MM Potential file name                                     MM_POTENTIAL
 GLOBAL| Coordinate file name                                      __STD_INPUT__
 GLOBAL| Method name                                                        CP2K
 GLOBAL| Project name                   201f3e4ae68c81514a7a6f7ac49fdc15588c08d6
 GLOBAL| Run type                                                         ENERGY
 GLOBAL| FFT library                                                       FFTW3
 GLOBAL| Diagonalization library                                       ScaLAPACK
 GLOBAL| Cholesky decomposition library                                ScaLAPACK
 GLOBAL| DGEMM library                                                      BLAS
 GLOBAL| Direct generalized diagonalization requested                          F
 GLOBAL| Orthonormality check for eigenvectors                          DISABLED
 GLOBAL| Matrix multiplication library                                 ScaLAPACK
 GLOBAL| All-to-all communication in single precision                          F
 GLOBAL| FFTs using library dependent lengths                                  F
 GLOBAL| Grid backend                                                       AUTO
 GLOBAL| Global print level                                               MEDIUM
 GLOBAL| MPI I/O enabled                                                       T
 GLOBAL| Total number of message passing processes                            16
 GLOBAL| Number of distributed systems (nodes)                                 1
 GLOBAL| Number of threads for this process                                    1
 GLOBAL| This output is from process                                           0
 GLOBAL| OpenMP stack size per thread (OMP_STACKSIZE)                        16M
 GLOBAL| CPU model name                          AMD EPYC 9V74 80-Core Processor
 GLOBAL| CPUID                                                              1002

 MEMORY| system memory details [Kb]
 MEMORY|                        rank 0           min           max       average
 MEMORY| MemTotal            263924016     263924016     263924016     263924016
 MEMORY| MemFree             239007492     239007492     239007492     239007492
 MEMORY| Buffers                356224        356224        356224        356224
 MEMORY| Cached               17849668      17849668      17849668      17849668
 MEMORY| Slab                  1488644       1488644       1488644       1488644
 MEMORY| SReclaimable          1144552       1144552       1144552       1144552
 MEMORY| MemLikelyFree       258357936     258357936     258357936     258357936


 *** Fundamental physical constants (SI units) ***

 *** Literature: B. J. Mohr and B. N. Taylor,
 ***             CODATA recommended values of the fundamental physical
 ***             constants: 2006, Web Version 5.1
 ***             http://physics.nist.gov/constants

 Speed of light in vacuum [m/s]                             2.99792458000000E+08
 Magnetic constant or permeability of vacuum [N/A**2]       1.25663706143592E-06
 Electric constant or permittivity of vacuum [F/m]          8.85418781762039E-12
 Planck constant (h) [J*s]                                  6.62606896000000E-34
 Planck constant (h-bar) [J*s]                              1.05457162825177E-34
 Elementary charge [C]                                      1.60217648700000E-19
 Electron mass [kg]                                         9.10938215000000E-31
 Electron g factor [ ]                                     -2.00231930436220E+00
 Proton mass [kg]                                           1.67262163700000E-27
 Fine-structure constant                                    7.29735253760000E-03
 Rydberg constant [1/m]                                     1.09737315685270E+07
 Avogadro constant [1/mol]                                  6.02214179000000E+23
 Boltzmann constant [J/K]                                   1.38065040000000E-23
 Atomic mass unit [kg]                                      1.66053878200000E-27
 Bohr radius [m]                                            5.29177208590000E-11

 *** Conversion factors ***

 [u] -> [a.u.]                                              1.82288848426455E+03
 [Angstrom] -> [Bohr] = [a.u.]                              1.88972613288564E+00
 [a.u.] = [Bohr] -> [Angstrom]                              5.29177208590000E-01
 [a.u.] -> [s]                                              2.41888432650478E-17
 [a.u.] -> [fs]                                             2.41888432650478E-02
 [a.u.] -> [J]                                              4.35974393937059E-18
 [a.u.] -> [N]                                              8.23872205491840E-08
 [a.u.] -> [K]                                              3.15774647902944E+05
 [a.u.] -> [kJ/mol]                                         2.62549961709828E+03
 [a.u.] -> [kcal/mol]                                       6.27509468713739E+02
 [a.u.] -> [Pa]                                             2.94210107994716E+13
 [a.u.] -> [bar]                                            2.94210107994716E+08
 [a.u.] -> [atm]                                            2.90362800883016E+08
 [a.u.] -> [eV]                                             2.72113838565563E+01
 [a.u.] -> [Hz]                                             6.57968392072181E+15
 [a.u.] -> [1/cm] (wave numbers)                            2.19474631370540E+05
 [a.u./Bohr**2] -> [1/cm]                                   5.14048714338585E+03
 

 CELL| Volume [angstrom^3]:                                         50388.000000
 CELL| Vector a [angstrom]:      39.000     0.000     0.000   |a| =    39.000000
 CELL| Vector b [angstrom]:       0.000    38.000     0.000   |b| =    38.000000
 CELL| Vector c [angstrom]:       0.000     0.000    34.000   |c| =    34.000000
 CELL| Angle (b,c), alpha [degree]:                                    90.000000
 CELL| Angle (a,c), beta  [degree]:                                    90.000000
 CELL| Angle (a,b), gamma [degree]:                                    90.000000
 CELL| Numerically orthorhombic:                                             YES
 CELL| Periodicity                                                          NONE

 CELL_REF| Volume [angstrom^3]:                                     50388.000000
 CELL_REF| Vector a [angstrom    39.000     0.000     0.000   |a| =    39.000000
 CELL_REF| Vector b [angstrom     0.000    38.000     0.000   |b| =    38.000000
 CELL_REF| Vector c [angstrom     0.000     0.000    34.000   |c| =    34.000000
 CELL_REF| Angle (b,c), alpha [degree]:                                90.000000
 CELL_REF| Angle (a,c), beta  [degree]:                                90.000000
 CELL_REF| Angle (a,b), gamma [degree]:                                90.000000
 CELL_REF| Numerically orthorhombic:                                         YES
 CELL_REF| Periodicity                                                      NONE

 GENERATE|  Preliminary Number of Bonds generated:                             0
 GENERATE|  Achieved consistency in connectivity generation.

 *******************************************************************************
 *******************************************************************************
 **                                                                           **
 **     #####                         ##              ##                      **
 **    ##   ##            ##          ##              ##                      **
 **   ##     ##                       ##            ######                    **
 **   ##     ##  ##   ##  ##   #####  ##  ##   ####   ##    #####    #####    **
 **   ##     ##  ##   ##  ##  ##      ## ##   ##      ##   ##   ##  ##   ##   **
 **   ##  ## ##  ##   ##  ##  ##      ####     ###    ##   ######   ######    **
 **    ##  ###   ##   ##  ##  ##      ## ##      ##   ##   ##       ##        **
 **     #######   #####   ##   #####  ##  ##  ####    ##    #####   ##        **
 **           ##                                                    ##        **
 **                                                                           **
 **                                                ... make the atoms dance   **
 **                                                                           **
 **            Copyright (C) by CP2K developers group (2000-2026)             **
 **                      J. Chem. Phys. 152, 194103 (2020)                    **
 **                                                                           **
 *******************************************************************************

 DFT| Spin restricted Kohn-Sham (RKS) calculation                            RKS
 DFT| Multiplicity                                                             1
 DFT| Number of spin states                                                    1
 DFT| Charge                                                                   0
 DFT| Self-interaction correction (SIC)                                       NO
 DFT| Cutoffs: density                                              1.000000E-10
 DFT|          gradient                                             1.000000E-10
 DFT|          tau                                                  1.000000E-10
 DFT|          cutoff_smoothing_range                               0.000000E+00
 DFT| XC density smoothing                                                  NONE
 DFT| XC derivatives                                                          PW

 FUNCTIONAL| GAUXC:
 FUNCTIONAL| Functional computed by GauXC Skala model aug-s0-funv2-cpu.fun      


 QS| Method:                                                                 GPW
 QS| Density plane wave grid type                        NON-SPHERICAL FULLSPACE
 QS| Number of grid levels:                                                    4
 QS| Density cutoff [a.u.]:                                                500.0
 QS| Multi grid cutoff [a.u.]: 1) grid level                               500.0
 QS|                           2) grid level                               166.7
 QS|                           3) grid level                                55.6
 QS|                           4) grid level                                18.5
 QS| Grid level progression factor:                                          3.0
 QS| Relative density cutoff [a.u.]:                                        30.0
 QS| Interaction thresholds: eps_pgf_orb:                                1.0E-05
 QS|                         eps_filter_matrix:                          0.0E+00
 QS|                         eps_core_charge:                            1.0E-12
 QS|                         eps_rho_gspace:                             1.0E-10
 QS|                         eps_rho_rspace:                             1.0E-10
 QS|                         eps_gvg_rspace:                             1.0E-05
 QS|                         eps_ppl:                                    1.0E-02
 QS|                         eps_ppnl:                                   1.0E-07


 ATOMIC KIND INFORMATION

  1. Atomic kind: C                                     Number of atoms:      15

     Orbital Basis Set                                   TZVP-MOLOPT-SCAN-GTH-q4

       Number of orbital shell sets:                                           1
       Number of orbital shells:                                               7
       Number of primitive Cartesian functions:                                5
       Number of Cartesian basis functions:                                   18
       Number of spherical basis functions:                                   17
       Norm type:                                                              2

       Normalised Cartesian orbitals:

                        Set   Shell   Orbital            Exponent    Coefficient

                          1       1    2s                5.623460      -0.349209
                                                         2.098559      -0.253875
                                                         0.820511       0.248209
                                                         0.317331       0.216287
                                                         0.111116       0.012850

                          1       2    3s                5.623460       0.160090
                                                         2.098559       0.144150
                                                         0.820511      -0.103023
                                                         0.317331       0.001075
                                                         0.111116       0.142208

                          1       3    4s                5.623460      -1.207693
                                                         2.098559      -1.266789
                                                         0.820511       0.734368
                                                         0.317331      -0.329587
                                                         0.111116       0.046451

                          1       4    3px               5.623460      -0.717953
                                                         2.098559      -0.559659
                                                         0.820511      -0.405261
                                                         0.317331      -0.145150
                                                         0.111116      -0.020126
                          1       4    3py               5.623460      -0.717953
                                                         2.098559      -0.559659
                                                         0.820511      -0.405261
                                                         0.317331      -0.145150
                                                         0.111116      -0.020126
                          1       4    3pz               5.623460      -0.717953
                                                         2.098559      -0.559659
                                                         0.820511      -0.405261
                                                         0.317331      -0.145150
                                                         0.111116      -0.020126

                          1       5    4px               5.623460       0.831730
                                                         2.098559       0.877901
                                                         0.820511       0.415963
                                                         0.317331       0.032156
                                                         0.111116      -0.090730
                          1       5    4py               5.623460       0.831730
                                                         2.098559       0.877901
                                                         0.820511       0.415963
                                                         0.317331       0.032156
                                                         0.111116      -0.090730
                          1       5    4pz               5.623460       0.831730
                                                         2.098559       0.877901
                                                         0.820511       0.415963
                                                         0.317331       0.032156
                                                         0.111116      -0.090730

                          1       6    5px               5.623460       1.619151
                                                         2.098559       2.412091
                                                         0.820511       0.659876
                                                         0.317331      -0.314050
                                                         0.111116       0.028213
                          1       6    5py               5.623460       1.619151
                                                         2.098559       2.412091
                                                         0.820511       0.659876
                                                         0.317331      -0.314050
                                                         0.111116       0.028213
                          1       6    5pz               5.623460       1.619151
                                                         2.098559       2.412091
                                                         0.820511       0.659876
                                                         0.317331      -0.314050
                                                         0.111116       0.028213

                          1       7    4dx2              5.623460      -2.005729
                                                         2.098559       1.064556
                                                         0.820511       0.464044
                                                         0.317331       0.120863
                                                         0.111116       0.003311
                          1       7    4dxy              5.623460      -3.474025
                                                         2.098559       1.843865
                                                         0.820511       0.803748
                                                         0.317331       0.209340
                                                         0.111116       0.005735
                          1       7    4dxz              5.623460      -3.474025
                                                         2.098559       1.843865
                                                         0.820511       0.803748
                                                         0.317331       0.209340
                                                         0.111116       0.005735
                          1       7    4dy2              5.623460      -2.005729
                                                         2.098559       1.064556
                                                         0.820511       0.464044
                                                         0.317331       0.120863
                                                         0.111116       0.003311
                          1       7    4dyz              5.623460      -3.474025
                                                         2.098559       1.843865
                                                         0.820511       0.803748
                                                         0.317331       0.209340
                                                         0.111116       0.005735
                          1       7    4dz2              5.623460      -2.005729
                                                         2.098559       1.064556
                                                         0.820511       0.464044
                                                         0.317331       0.120863
                                                         0.111116       0.003311

       Atomic covalent radius [Angstrom]:                                  0.770

       Atomic van der Waals radius [Angstrom]:                             1.700

     GTH Potential information for                                   GTH-SCAN-q4

       Description:                       Goedecker-Teter-Hutter pseudopotential
                                           Goedecker et al., PRB 54, 1703 (1996)
                                          Hartwigsen et al., PRB 58, 3641 (1998)
                                                      Krack, TCA 114, 145 (2005)

       Gaussian exponent of the core charge distribution:               4.454624
       Electronic configuration (s p d ...):                       2   2   0   0

       Parameters of the local part of the GTH pseudopotential:

                          rloc        C1          C2          C3          C4
                        0.335027   -8.822616    1.299117

       Parameters of the non-local part of the GTH pseudopotential:

                   l      r(l)      h(i,j,l)

                   0    0.303798    9.625763

  2. Atomic kind: H                                     Number of atoms:      12

     Orbital Basis Set                                   TZVP-MOLOPT-SCAN-GTH-q1

       Number of orbital shell sets:                                           1
       Number of orbital shells:                                               4
       Number of primitive Cartesian functions:                                5
       Number of Cartesian basis functions:                                    6
       Number of spherical basis functions:                                    6
       Norm type:                                                              2

       Normalised Cartesian orbitals:

                        Set   Shell   Orbital            Exponent    Coefficient

                          1       1    2s                9.168765       0.095357
                                                         2.161194       0.125778
                                                         0.619868       0.162183
                                                         0.161316       0.074849
                                                         0.412255       0.090962

                          1       2    3s                9.168765      -0.435739
                                                         2.161194      -0.868971
                                                         0.619868      -0.406683
                                                         0.161316      -0.142964
                                                         0.412255       0.978336

                          1       3    4s                9.168765       0.385896
                                                         2.161194       1.113624
                                                         0.619868       0.043366
                                                         0.161316      -0.067676
                                                         0.412255       0.053421

                          1       4    3px               9.168765      -1.788640
                                                         2.161194       0.906920
                                                         0.619868       0.273605
                                                         0.161316       0.091389
                                                         0.412255       0.008094
                          1       4    3py               9.168765      -1.788640
                                                         2.161194       0.906920
                                                         0.619868       0.273605
                                                         0.161316       0.091389
                                                         0.412255       0.008094
                          1       4    3pz               9.168765      -1.788640
                                                         2.161194       0.906920
                                                         0.619868       0.273605
                                                         0.161316       0.091389
                                                         0.412255       0.008094

       Atomic covalent radius [Angstrom]:                                  0.320

       Atomic van der Waals radius [Angstrom]:                             1.090

     GTH Potential information for                                   GTH-SCAN-q1

       Description:                       Goedecker-Teter-Hutter pseudopotential
                                           Goedecker et al., PRB 54, 1703 (1996)
                                          Hartwigsen et al., PRB 58, 3641 (1998)
                                                      Krack, TCA 114, 145 (2005)

       Gaussian exponent of the core charge distribution:              12.429142
       Electronic configuration (s p d ...):                       1   0   0   0

       Parameters of the local part of the GTH pseudopotential:

                          rloc        C1          C2          C3          C4
                        0.200569   -4.177243    0.723816


 MOLECULE KIND INFORMATION


 All atoms are their own molecule, skipping detailed information


 TOTAL NUMBERS AND MAXIMUM NUMBERS

  Total number of            - Atomic kinds:                                   2
                             - Atoms:                                         27
                             - Shell sets:                                    27
                             - Shells:                                       153
                             - Primitive Cartesian functions:                135
                             - Cartesian basis functions:                    342
                             - Spherical basis functions:                    327

  Maximum angular momentum of- Orbital basis functions:                        2
                             - Local part of the GTH pseudopotential:          2
                             - Non-local part of the GTH pseudopotential:      0


 MODULE QUICKSTEP: ATOMIC COORDINATES IN ANGSTROM

   Atom Kind Element         X             Y             Z       Z(eff)     Mass
      1    1 C     6     18.689540     16.895215     16.987290   4.0000  12.0107
      2    1 C     6     20.043510     17.161595     16.524560   4.0000  12.0107
      3    1 C     6     20.659350     18.420305     16.432090   4.0000  12.0107
      4    1 C     6     18.713170     20.057035     17.381030   4.0000  12.0107
      5    1 C     6     17.680350     19.144315     17.649680   4.0000  12.0107
      6    1 C     6     17.725500     17.703255     17.447270   4.0000  12.0107
      7    1 C     6     16.470330     19.642745     18.168480   4.0000  12.0107
      8    1 C     6     16.263600     20.984045     18.423160   4.0000  12.0107
      9    1 C     6     17.285160     21.885285     18.151240   4.0000  12.0107
     10    1 C     6     18.481280     21.411315     17.637050   4.0000  12.0107
     11    1 C     6     21.961710     18.480625     15.929210   4.0000  12.0107
     12    1 C     6     22.671360     17.352475     15.550660   4.0000  12.0107
     13    1 C     6     22.072440     16.104345     15.660550   4.0000  12.0107
     14    1 C     6     20.777890     16.025665     16.134170   4.0000  12.0107
     15    1 C     6     20.107640     19.770335     16.853800   4.0000  12.0107
     16    2 H     1     18.425880     15.844385     16.941000   1.0000   1.0079
     17    2 H     1     16.802400     17.207295     17.726780   1.0000   1.0079
     18    2 H     1     15.677490     18.936075     18.376760   1.0000   1.0079
     19    2 H     1     15.320210     21.323485     18.828760   1.0000   1.0079
     20    2 H     1     17.155290     22.942005     18.342550   1.0000   1.0079
     21    2 H     1     19.278540     22.115255     17.428160   1.0000   1.0079
     22    2 H     1     22.436630     19.450865     15.842830   1.0000   1.0079
     23    2 H     1     23.679790     17.448895     15.171240   1.0000   1.0079
     24    2 H     1     22.603700     15.207455     15.371990   1.0000   1.0079
     25    2 H     1     20.300500     15.057995     16.217660   1.0000   1.0079
     26    2 H     1     20.798380     20.148115     17.615080   1.0000   1.0079
     27    2 H     1     20.254870     20.441705     16.003050   1.0000   1.0079



 SCF PARAMETERS         Density guess:                                    ATOMIC
                        --------------------------------------------------------
                        max_scf:                                             100
                        max_scf_history:                                       0
                        max_diis:                                              4
                        --------------------------------------------------------
                        eps_scf:                                        1.00E-05
                        eps_scf_history:                                0.00E+00
                        eps_diis:                                       1.00E-01
                        eps_eigval:                                     1.00E-05
                        --------------------------------------------------------
                        level_shift [a.u.]:                             0.000000
                        --------------------------------------------------------
                        Mixing method:                           DIRECT_P_MIXING
                        --------------------------------------------------------
                        No outer SCF

 PW_GRID| Information for grid number                                          1
 PW_GRID| Grid distributed over                                    16 processors
 PW_GRID| Real space group dimensions                                    16    1
 PW_GRID| the grid is blocked:                                                NO
 PW_GRID| Cutoff [a.u.]                                                    500.0
 PW_GRID| spherical cutoff:                                                   NO
 PW_GRID|   Bounds   1           -375     374                Points:         750
 PW_GRID|   Bounds   2           -364     364                Points:         729
 PW_GRID|   Bounds   3           -324     323                Points:         648
 PW_GRID| Volume element (a.u.^3)  0.9598E-03     Volume (a.u.^3)    340035.0830
 PW_GRID| Grid span                                                    FULLSPACE
 PW_GRID|   Distribution                         Average         Max         Min
 PW_GRID|   G-Vectors                         22143375.0    22143750    22143000
 PW_GRID|   G-Rays                               29524.5       29525       29524
 PW_GRID|   Real Space Points                 22143375.0    22202424    21730032

 PW_GRID| Information for grid number                                          2
 PW_GRID| Number of the reference grid                                         1
 PW_GRID| Grid distributed over                                    16 processors
 PW_GRID| Real space group dimensions                                    16    1
 PW_GRID| the grid is blocked:                                                NO
 PW_GRID| Cutoff [a.u.]                                                    166.7
 PW_GRID| spherical cutoff:                                                   NO
 PW_GRID|   Bounds   1           -216     215                Points:         432
 PW_GRID|   Bounds   2           -216     215                Points:         432
 PW_GRID|   Bounds   3           -187     187                Points:         375
 PW_GRID| Volume element (a.u.^3)  0.4859E-02     Volume (a.u.^3)    340035.0830
 PW_GRID| Grid span                                                    FULLSPACE
 PW_GRID|   Distribution                         Average         Max         Min
 PW_GRID|   G-Vectors                          4374000.0     4374864     4373136
 PW_GRID|   G-Rays                               10125.0       10127       10123
 PW_GRID|   Real Space Points                  4374000.0     4374000     4374000

 PW_GRID| Information for grid number                                          3
 PW_GRID| Number of the reference grid                                         1
 PW_GRID| Grid distributed over                                    16 processors
 PW_GRID| Real space group dimensions                                    16    1
 PW_GRID| the grid is blocked:                                                NO
 PW_GRID| Cutoff [a.u.]                                                     55.6
 PW_GRID| spherical cutoff:                                                   NO
 PW_GRID|   Bounds   1           -128     127                Points:         256
 PW_GRID|   Bounds   2           -121     121                Points:         243
 PW_GRID|   Bounds   3           -108     107                Points:         216
 PW_GRID| Volume element (a.u.^3)  0.2531E-01     Volume (a.u.^3)    340035.0830
 PW_GRID| Grid span                                                    FULLSPACE
 PW_GRID|   Distribution                         Average         Max         Min
 PW_GRID|   G-Vectors                           839808.0      840960      838656
 PW_GRID|   G-Rays                                3280.5        3285        3276
 PW_GRID|   Real Space Points                   839808.0      839808      839808

 PW_GRID| Information for grid number                                          4
 PW_GRID| Number of the reference grid                                         1
 PW_GRID| Grid distributed over                                    16 processors
 PW_GRID| Real space group dimensions                                    16    1
 PW_GRID| the grid is blocked:                                                NO
 PW_GRID| Cutoff [a.u.]                                                     18.5
 PW_GRID| spherical cutoff:                                                   NO
 PW_GRID|   Bounds   1            -72      71                Points:         144
 PW_GRID|   Bounds   2            -72      71                Points:         144
 PW_GRID|   Bounds   3            -62      62                Points:         125
 PW_GRID| Volume element (a.u.^3)  0.1312         Volume (a.u.^3)    340035.0830
 PW_GRID| Grid span                                                    FULLSPACE
 PW_GRID|   Distribution                         Average         Max         Min
 PW_GRID|   G-Vectors                           162000.0      162432      161424
 PW_GRID|   G-Rays                                1125.0        1128        1121
 PW_GRID|   Real Space Points                   162000.0      162000      162000

 POISSON| Solver                                                        ANALYTIC
 POISSON| Periodicity                                                       NONE

 RS_GRID| Information for grid number                                          1
 RS_GRID|   Bounds   1           -375     374                Points:         750
 RS_GRID|   Bounds   2           -364     364                Points:         729
 RS_GRID|   Bounds   3           -324     323                Points:         648
 RS_GRID| Real space distribution over                                  4 groups
 RS_GRID| Real space distribution along direction                              1
 RS_GRID| Border size                                                         26
 RS_GRID| Real space distribution over                                  4 groups
 RS_GRID| Real space distribution along direction                              2
 RS_GRID| Border size                                                         26
 RS_GRID|   Distribution                         Average         Max         Min
 RS_GRID|   Planes                                 239.5         240         239
 RS_GRID|   Distribution                         Average         Max         Min
 RS_GRID|   Planes                                 234.2         235         234

 RS_GRID| Information for grid number                                          2
 RS_GRID|   Bounds   1           -216     215                Points:         432
 RS_GRID|   Bounds   2           -216     215                Points:         432
 RS_GRID|   Bounds   3           -187     187                Points:         375
 RS_GRID| Real space distribution over                                  4 groups
 RS_GRID| Real space distribution along direction                              1
 RS_GRID| Border size                                                         24
 RS_GRID| Real space distribution over                                  4 groups
 RS_GRID| Real space distribution along direction                              2
 RS_GRID| Border size                                                         24
 RS_GRID|   Distribution                         Average         Max         Min
 RS_GRID|   Planes                                 156.0         156         156
 RS_GRID|   Distribution                         Average         Max         Min
 RS_GRID|   Planes                                 156.0         156         156

 RS_GRID| Information for grid number                                          3
 RS_GRID|   Bounds   1           -128     127                Points:         256
 RS_GRID|   Bounds   2           -121     121                Points:         243
 RS_GRID|   Bounds   3           -108     107                Points:         216
 RS_GRID| Real space fully replicated
 RS_GRID| Group size                                                           1

 RS_GRID| Information for grid number                                          4
 RS_GRID|   Bounds   1            -72      71                Points:         144
 RS_GRID|   Bounds   2            -72      71                Points:         144
 RS_GRID|   Bounds   3            -62      62                Points:         125
 RS_GRID| Real space fully replicated
 RS_GRID| Group size                                                           1

 Extrapolation method: initial_guess

 Atomic guess: The first density matrix is obtained in terms of atomic orbitals
               and electronic configurations assigned to each atomic kind

 Guess for atomic kind: C

 Electronic structure
    Total number of core electrons                                          2.00
    Total number of valence electrons                                       4.00
    Total number of electrons                                               6.00
    Multiplicity                                                   not specified
    S   [  2.00] 2.00
    P      2.00


 *******************************************************************************
                  Iteration          Convergence                     Energy [au]
 *******************************************************************************
                          1        0.124377                      -5.269415449983
                          2        0.880091E-01                  -5.274432015385
                          3        0.424095E-03                  -5.279419090830
                          4        0.118108E-03                  -5.279419164687
                          5        0.144057E-06                  -5.279419172500

 Energy components [Hartree]           Total Energy ::           -5.279419172500
                                        Band Energy ::           -1.313739125276
                                     Kinetic Energy ::            3.405940495234
                                   Potential Energy ::           -8.685359667734
                                      Virial (-V/T) ::            2.550062069460
                                        Core Energy ::           -8.290068838701
                                          XC Energy ::           -1.377173731606
                                     Coulomb Energy ::            4.387823397806
                       Total Pseudopotential Energy ::          -11.730281123094
                       Local Pseudopotential Energy ::          -12.376528803709
                    Nonlocal Pseudopotential Energy ::            0.646247680614
                                        Confinement ::            0.342717891594

 Orbital energies  State     L     Occupation   Energy[a.u.]          Energy[eV]

                       1     0          2.000      -0.480601          -13.077809

                       1     1          2.000      -0.176269           -4.796521


 Total Electron Density at R=0:                                         0.000000

 Guess for atomic kind: H

 Electronic structure
    Total number of core electrons                                          0.00
    Total number of valence electrons                                       1.00
    Total number of electrons                                               1.00
    Multiplicity                                                   not specified
    S      1.00


 *******************************************************************************
                  Iteration          Convergence                     Energy [au]
 *******************************************************************************
                          1        0.364523E-02                  -0.422484553466
                          2        0.146100E-03                  -0.422490428911
                          3        0.266755E-04                  -0.422490480125
                          4        0.362968E-08                  -0.422490480723

 Energy components [Hartree]           Total Energy ::           -0.422490480723
                                        Band Energy ::           -0.192735382727
                                     Kinetic Energy ::            0.477952444388
                                   Potential Energy ::           -0.900442925111
                                      Virial (-V/T) ::            1.883959242566
                                        Core Energy ::           -0.479166166213
                                          XC Energy ::           -0.248560768168
                                     Coulomb Energy ::            0.305236453657
                       Total Pseudopotential Energy ::           -0.975131101124
                       Local Pseudopotential Energy ::           -0.975131101124
                    Nonlocal Pseudopotential Energy ::            0.000000000000
                                        Confinement ::            0.180124905236

 Orbital energies  State     L     Occupation   Energy[a.u.]          Energy[eV]

                       1     0          1.000      -0.192735           -5.244596


 Total Electron Density at R=0:                                         0.249202
 Re-scaling the density matrix to get the right number of electrons
                  # Electrons              Trace(P)               Scaling factor
                           72                72.000                        1.000

 Number of electrons:                                                         72
 Number of occupied orbitals:                                                 36
 Number of molecular orbitals:                                                36

 Number of orbital functions:                                                327
 Number of independent orbital functions:                                    327


 SCF WAVEFUNCTION OPTIMIZATION

  Step     Update method      Time    Convergence         Total energy    Change
  ------------------------------------------------------------------------------
     1 P_Mix/Diag. 0.40E+00   39.1     1.05790358       -91.3975449243 -9.14E+01
     2 P_Mix/Diag. 0.40E+00   47.3     0.53357743       -91.7799316952 -3.82E-01
     3 P_Mix/Diag. 0.40E+00   46.6     0.31101318       -91.9601546953 -1.80E-01
     4 P_Mix/Diag. 0.40E+00   47.5     0.16756446       -92.0657914783 -1.06E-01
     5 P_Mix/Diag. 0.40E+00   46.3     0.10401565       -92.1298282138 -6.40E-02
     6 P_Mix/Diag. 0.40E+00   45.7     0.06378960       -92.1686750493 -3.88E-02
     7 DIIS/Diag.  0.27E-02   45.6     0.04091893       -92.1922125874 -2.35E-02
     8 DIIS/Diag.  0.15E-02   45.9     0.00105776       -92.2280389520 -3.58E-02
     9 DIIS/Diag.  0.13E-02   45.7     0.00150646       -92.2280468945 -7.94E-06
    10 DIIS/Diag.  0.14E-02   45.6     0.00223662       -92.2280491610 -2.27E-06
    11 DIIS/Diag.  0.51E-03   45.6     0.00062321       -92.2280572692 -8.11E-06
    12 DIIS/Diag.  0.24E-03   46.0     0.00026384       -92.2280579481 -6.79E-07
    13 DIIS/Diag.  0.11E-03   45.9     0.00013358       -92.2280581641 -2.16E-07
    14 DIIS/Diag.  0.79E-04   45.7     0.00009195       -92.2280581961 -3.20E-08
    15 DIIS/Diag.  0.39E-04   45.7     0.00006941       -92.2280582204 -2.43E-08
    16 DIIS/Diag.  0.56E-04   45.7     0.00006047       -92.2280582215 -1.10E-09
    17 DIIS/Diag.  0.34E-04   45.8     0.00004327       -92.2280582166  4.91E-09
    18 DIIS/Diag.  0.18E-04   46.5     0.00001697       -92.2280582292 -1.27E-08
    19 DIIS/Diag.  0.15E-04   46.5     0.00001215       -92.2280582324 -3.17E-09
    20 DIIS/Diag.  0.11E-04   46.4     0.00000968       -92.2280582274  5.01E-09

  *** SCF run converged in    20 steps ***


  Electronic density on regular grids:        -71.9999999999        0.0000000001
  Core density on regular grids:               71.9999999941       -0.0000000059
  Total charge density on r-space grids:       -0.0000000058
  Total charge density g-space grids:          -0.0000000058

  Overlap energy of the core charge distribution:               0.00000627877714
  Self energy of the core charge distribution:               -218.95927807320183
  Core Hamiltonian energy:                                     68.59351789164131
  Hartree energy:                                              88.37218442457316
  Exchange-correlation energy:                                -30.23448874917875

  Total energy:                                               -92.22805822738897

 MO| EIGENVALUES AND OCCUPATION NUMBERS
 MO|
 MO|  Index      Eigenvalue [a.u.]        Eigenvalue [eV]             Occupation
 MO|      1              -0.838162             -22.807544               2.000000
 MO|      2              -0.824179             -22.427040               2.000000
 MO|      3              -0.766251             -20.850737               2.000000
 MO|      4              -0.757719             -20.618572               2.000000
 MO|      5              -0.727441             -19.794667               2.000000
 MO|      6              -0.716707             -19.502598               2.000000
 MO|      7              -0.688824             -18.743849               2.000000
 MO|      8              -0.646545             -17.593395               2.000000
 MO|      9              -0.609041             -16.572856               2.000000
 MO|     10              -0.581041             -15.810927               2.000000
 MO|     11              -0.567989             -15.455777               2.000000
 MO|     12              -0.543848             -14.798844               2.000000
 MO|     13              -0.528379             -14.377910               2.000000
 MO|     14              -0.480087             -13.063821               2.000000
 MO|     15              -0.460883             -12.541266               2.000000
 MO|     16              -0.451465             -12.284986               2.000000
 MO|     17              -0.438065             -11.920361               2.000000
 MO|     18              -0.433019             -11.783050               2.000000
 MO|     19              -0.423181             -11.515330               2.000000
 MO|     20              -0.407119             -11.078280               2.000000
 MO|     21              -0.397415             -10.814206               2.000000
 MO|     22              -0.388549             -10.572949               2.000000
 MO|     23              -0.385280             -10.483989               2.000000
 MO|     24              -0.365535              -9.946702               2.000000
 MO|     25              -0.360776              -9.817210               2.000000
 MO|     26              -0.351902              -9.575737               2.000000
 MO|     27              -0.350874              -9.547771               2.000000
 MO|     28              -0.328016              -8.925781               2.000000
 MO|     29              -0.316642              -8.616259               2.000000
 MO|     30              -0.311469              -8.475501               2.000000
 MO|     31              -0.301512              -8.204548               2.000000
 MO|     32              -0.300256              -8.170383               2.000000
 MO|     33              -0.260206              -7.080564               2.000000
 MO|     34              -0.250721              -6.822464               2.000000
 MO|     35              -0.233362              -6.350094               2.000000
 MO|     36              -0.200254              -5.449188               2.000000
 MO| Sum:                                                              72.000000
 MO| E(Fermi):           -0.200254 a.u.         -5.449188 eV


 !-----------------------------------------------------------------------------!
                     Mulliken Population Analysis

 #  Atom  Element  Kind  Atomic population                           Net charge
       1     C        1          4.113571                             -0.113571
       2     C        1          3.807675                              0.192325
       3     C        1          3.981508                              0.018492
       4     C        1          3.979016                              0.020984
       5     C        1          3.808342                              0.191658
       6     C        1          4.117469                             -0.117469
       7     C        1          4.001863                             -0.001863
       8     C        1          4.019344                             -0.019344
       9     C        1          4.008038                             -0.008038
      10     C        1          4.070016                             -0.070016
      11     C        1          4.072394                             -0.072394
      12     C        1          4.004800                             -0.004800
      13     C        1          4.018942                             -0.018942
      14     C        1          4.004642                             -0.004642
      15     C        1          3.978468                              0.021532
      16     H        2          0.998364                              0.001636
      17     H        2          0.998531                              0.001469
      18     H        2          1.009016                             -0.009016
      19     H        2          1.010276                             -0.010276
      20     H        2          1.010869                             -0.010869
      21     H        2          1.005781                             -0.005781
      22     H        2          1.005641                             -0.005641
      23     H        2          1.010575                             -0.010575
      24     H        2          1.010496                             -0.010496
      25     H        2          1.008606                             -0.008606
      26     H        2          0.971846                              0.028154
      27     H        2          0.973911                              0.026089
 # Total charge                             72.000000                  0.000000

 !-----------------------------------------------------------------------------!

 !-----------------------------------------------------------------------------!
                           Hirshfeld Charges

  #Atom  Element  Kind  Ref Charge     Population                    Net charge
      1       C      1       4.000          4.448                        -0.448
      2       C      1       4.000          4.002                        -0.002
      3       C      1       4.000          4.009                        -0.009
      4       C      1       4.000          4.009                        -0.009
      5       C      1       4.000          4.001                        -0.001
      6       C      1       4.000          4.449                        -0.449
      7       C      1       4.000          4.447                        -0.447
      8       C      1       4.000          4.443                        -0.443
      9       C      1       4.000          4.438                        -0.438
     10       C      1       4.000          4.458                        -0.458
     11       C      1       4.000          4.459                        -0.459
     12       C      1       4.000          4.438                        -0.438
     13       C      1       4.000          4.443                        -0.443
     14       C      1       4.000          4.447                        -0.447
     15       C      1       4.000          4.779                        -0.779
     16       H      2       1.000          0.559                         0.441
     17       H      2       1.000          0.559                         0.441
     18       H      2       1.000          0.555                         0.445
     19       H      2       1.000          0.553                         0.447
     20       H      2       1.000          0.553                         0.447
     21       H      2       1.000          0.556                         0.444
     22       H      2       1.000          0.556                         0.444
     23       H      2       1.000          0.554                         0.446
     24       H      2       1.000          0.553                         0.447
     25       H      2       1.000          0.555                         0.445
     26       H      2       1.000          0.558                         0.442
     27       H      2       1.000          0.559                         0.441

  Total Charge                                                            0.060
 !-----------------------------------------------------------------------------!

 ENERGY| Total FORCE_EVAL ( QS ) energy [hartree]            -92.228058227388971

 -------------------------------------------------------------------------------
 -                                                                             -
 -                                DBCSR STATISTICS                             -
 -                                                                             -
 -------------------------------------------------------------------------------
 COUNTER                                    TOTAL       BLAS       SMM       ACC
 flops     6 x     6 x     4               426240     100.0%      0.0%      0.0%     
 flops     6 x    17 x     4              1468800     100.0%      0.0%      0.0%     
 flops    17 x     6 x     4              1468800     100.0%      0.0%      0.0%     
 flops     6 x     6 x    32              3409920     100.0%      0.0%      0.0%     
 flops    17 x    17 x     4              5548800     100.0%      0.0%      0.0%     
 flops     6 x    17 x    32             11750400     100.0%      0.0%      0.0%     
 flops    17 x     6 x    32             11750400     100.0%      0.0%      0.0%     
 flops    17 x    17 x    32             44390400     100.0%      0.0%      0.0%     
 flops inhomo. stacks                           0       0.0%      0.0%      0.0%
 flops total                        80.213760E+06     100.0%      0.0%      0.0%
 flops max/rank                      6.235200E+06     100.0%      0.0%      0.0%
 matmuls inhomo. stacks                         0       0.0%      0.0%      0.0%
 matmuls total                              14960     100.0%      0.0%      0.0%
 number of processed stacks                  2440     100.0%      0.0%      0.0%
 average stack size                                     6.1       0.0       0.0
 marketing flops                   153.977760E+06
 -------------------------------------------------------------------------------
 # multiplications                             20
 max memory usage/rank              13.045473E+09
 # max total images/rank                        1
 # max 3D layers                                1
 # MPI messages exchanged                    1920
 MPI messages size (bytes):
  total size                        11.301120E+06
  min size                           0.000000E+00
  max size                          22.016000E+03
  average size                       5.886000E+03
 MPI breakdown and total messages size (bytes):
             size <=      128                 960                        0
       128 < size <=     8192                 480                  1255680
      8192 < size <=    32768                 480                 10045440
     32768 < size <=   131072                   0                        0
    131072 < size <=  4194304                   0                        0
   4194304 < size <= 16777216                   0                        0
  16777216 < size                               0                        0
 -------------------------------------------------------------------------------
 -                                                                             -
 -                      DBCSR MESSAGE PASSING PERFORMANCE                      -
 -                                                                             -
 -------------------------------------------------------------------------------
 ROUTINE             CALLS      AVE VOLUME [Bytes]
 MP_Bcast                9                     12.
 MP_Allreduce          135                     12.
 MP_Alltoall           660                  30537.
 MP_ISend              320                   3198.
 MP_IRecv              320                    436.
 -------------------------------------------------------------------------------

 -------------------------------------------------------------------------------
 -                                                                             -
 -                                GRID STATISTICS                              -
 -                                                                             -
 -------------------------------------------------------------------------------
 LP    KERNEL             BACKEND                              COUNT     PERCENT
 4     collocate ortho    CPU                                   4662      23.11%
 4     integrate ortho    CPU                                   4440      22.01%
 3     collocate ortho    CPU                                   4368      21.65%
 3     integrate ortho    CPU                                   4160      20.62%
 2     collocate ortho    CPU                                   1260       6.25%
 2     integrate ortho    CPU                                   1200       5.95%
 0     collocate general  CPU                                     54       0.27%
 0     integrate general  CPU                                     27       0.13%
 -------------------------------------------------------------------------------

 -------------------------------------------------------------------------------
 -                                                                             -
 -                          OFFLOAD MEMPOOL STATISTICS                         -
 -                                                                             -
 -------------------------------------------------------------------------------
 Memory consumption                Number of allocations  Used [MiB]  Size [MiB]
 Host                                                  6         470     7450469
 -------------------------------------------------------------------------------

 MEMORY| Estimated peak process memory [MiB]                               10146

 -------------------------------------------------------------------------------
 ----                             MULTIGRID INFO                            ----
 -------------------------------------------------------------------------------
 count for grid        1:          71794          cutoff [a.u.]          500.00
 count for grid        2:          56435          cutoff [a.u.]          166.67
 count for grid        3:          48921          cutoff [a.u.]           55.56
 count for grid        4:          25718          cutoff [a.u.]           18.52
 total gridlevel count  :         202868

 -------------------------------------------------------------------------------
 -                                                                             -
 -                         MESSAGE PASSING PERFORMANCE                         -
 -                                                                             -
 -------------------------------------------------------------------------------

 ROUTINE             CALLS      AVE VOLUME [Bytes]
 MP_Group                4
 MP_Bcast              102                 201704.
 MP_Allreduce          379                  67505.
 MP_Sync                24
 MP_Alltoall           261              505371836.
 MP_SendRecv           630                4007232.
 MP_ISendRecv          600                4007232.
 MP_Wait              1535
 MP_comm_split          20
 MP_ISend              680               23247523.
 MP_IRecv              680               23248240.
 -------------------------------------------------------------------------------


 -------------------------------------------------------------------------------
 -                                                                             -
 -                           R E F E R E N C E S                               -
 -                                                                             -
 -------------------------------------------------------------------------------
 
 CP2K version 2026.2, the CP2K developers group (2026).
 CP2K is freely available from https://www.cp2k.org/ .
 
 M. Iannuzzi, J. Wilhelm, F. Stein, A. Bussy, H. Elgabarty, D. Golze, A. Hehn, 
 M. Graml, S. Marek, B. Sertcan Gökmen, C. Schran, H. Forbert, R. Z. 
 Khaliullin, A. Kozhevnikov, M. Taillefumier, R. Meli, V. V. Rybkin, M. Brehm, 
 R. Schade, O. Schütt, J. V. Pototschnig, H. Mirhosseini, A. Knüpfer, D. Marx, 
 M. Krack, J. Hutter, T. D. Kühne.
 J. Phys. Chem. B 130, 1237-1310 (2026).
 The CP2K Program Package Made Simple.
 https://doi.org/10.1021/acs.jpcb.5c05851

 T. D. Kühne, M. Iannuzzi, M. Del Ben, V. V. Rybkin, P. Seewald, F. Stein, T. 
 Laino, R. Z. Khaliullin, O. Schütt, F. Schiffmann, D. Golze, J. Wilhelm, S. 
 Chulkov, M. H. Bani-Hashemian, V. Weber, U. Borstnik, M. Taillefumier, A. S. 
 Jakobovits, A. Lazzaro, H. Pabst, T. Müller, R. Schade, M. Guidon, S. 
 Andermatt, N. Holmberg, G. K. Schenter, A. Hehn, A. Bussy, F. Belleflamme, G. 
 Tabacchi, A. Glöß, M. Lass, I. Bethune, C. J. Mundy, C. Plessl, M. Watkins, 
 J. VandeVondele, M. Krack, J. Hutter.
 J. Chem. Phys. 152, 194103 (2020).
 CP2K: An electronic structure and molecular dynamics software package - 
 Quickstep: Efficient and accurate electronic structure calculations.
 https://doi.org/10.1063/5.0007045

 O. Schuett, P. Messmer, J. Hutter, J. VandeVondele.
 Electronic Structure Calculations on Graphics Processing Units, 173-190 (2016).
 GPU-Accelerated Sparse Matrix-Matrix Multiplication for Linear Scaling Density 
 Functional Theory.
 https://doi.org/10.1002/9781118670712.ch8

 U. Borstnik, J. VandeVondele, V. Weber, J. Hutter.
 Parallel Comput. 40, 47-58 (2014).
 Sparse matrix multiplication: The distributed block-compressed sparse row 
 library.
 https://doi.org/10.1016/j.parco.2014.03.012

 J. VandeVondele, J. Hutter.
 J. Chem. Phys. 127, 114105 (2007).
 Gaussian basis sets for accurate calculations on molecular systems in gas and 
 condensed phases.
 https://doi.org/10.1063/1.2770708

 J. VandeVondele, M. Krack, F. Mohamed, M. Parrinello, T. Chassaing, J. Hutter.
 Comput. Phys. Commun. 167, 103-128 (2005).
 QUICKSTEP: Fast and accurate density functional calculations using a mixed 
 Gaussian and plane waves approach.
 https://doi.org/10.1016/j.cpc.2004.12.014

 M. Krack.
 Theor. Chem. Acc. 114, 145-152 (2005).
 Pseudopotentials for H to Kr optimized for gradient-corrected 
 exchange-correlation functionals.
 https://doi.org/10.1007/s00214-005-0655-y

 M. Frigo, S. G. Johnson.
 Proc. IEEE 93, 216-231 (2005).
 The design and implementation of FFTW3.
 https://doi.org/10.1109/JPROC.2004.840301

 C. Hartwigsen, S. Goedecker, J. Hutter.
 Phys. Rev. B 58, 3641-3662 (1998).
 Relativistic separable dual-space Gaussian pseudopotentials from H to Rn.
 https://doi.org/10.1103/PhysRevB.58.3641

 G. Lippert, J. Hutter, M. Parrinello.
 Mol. Phys. 92, 477-487 (1997).
 A hybrid Gaussian and plane wave density functional scheme.
 https://doi.org/10.1080/002689797170220

 S. Goedecker, M. Teter, J. Hutter.
 Phys. Rev. B 54, 1703-1710 (1996).
 Separable dual-space Gaussian pseudopotentials.
 https://doi.org/10.1103/PhysRevB.54.1703


 -------------------------------------------------------------------------------
 -                                                                             -
 -                                T I M I N G                                  -
 -                                                                             -
 -------------------------------------------------------------------------------
 SUBROUTINE                       CALLS  ASD         SELF TIME        TOTAL TIME
                                MAXIMUM       AVERAGE  MAXIMUM  AVERAGE  MAXIMUM
 CP2K                                 1  1.0    0.066    0.076  940.474  940.475
 qs_energies                          1  2.0    0.000    0.000  933.665  933.666
 scf_env_do_scf                       1  3.0    0.000    0.000  921.834  921.834
 scf_env_do_scf_inner_loop           20  4.0    0.001    0.001  921.834  921.834
 qs_ks_update_qs_env                 20  5.0    0.000    0.000  789.172  789.172
 rebuild_ks_matrix                   20  6.0    0.000    0.000  789.170  789.170
 qs_ks_build_kohn_sham_matrix        20  7.0  619.898  619.983  789.170  789.170
 fft_wrap_pw1pw2                    206  9.2    0.010    0.014  219.791  220.856
 fft_wrap_pw1pw2_500                 83  9.7    7.093    7.514  194.857  198.414
 fft3d_ps                           206 11.2   74.663   77.129  140.116  144.324
 qs_rho_update_rho_low               21  5.0    0.000    0.000  139.203  139.203
 calculate_rho_elec                  21  6.0    1.996    2.014  139.203  139.203
 density_rs2pw                       21  7.0    0.003    0.003  130.005  130.658
 sum_up_and_integrate                20  8.0    0.000    0.000   81.336   81.337
 integrate_v_rspace                  20  9.0    0.000    0.001   81.335   81.337
 potential_pw2rs                     20 10.0    0.106    0.125   80.943   80.969
 pw_gather_p                        105 10.6   44.448   48.179   44.448   48.179
 pw_poisson_solve                    20  8.0    0.001    0.002   40.176   41.409
 yz_to_x                            105 11.6   24.630   25.660   35.415   36.769
 x_to_yz                            101 12.8   18.078   18.487   30.026   33.198
 mp_alltoall_z22v                   206 13.2   22.733   26.654   22.733   26.654
 pw_poisson_set                      21  8.9    0.003    0.003   25.186   26.419
 pw_scatter_p                       101 11.8   19.473   24.690   19.473   24.690
 fft_wrap_pw1pw2_170                 41 10.5    0.231    0.265   20.644   22.714
 pw_copy                            200 10.0   18.636   19.253   18.636   19.253
 -------------------------------------------------------------------------------

 The number of warnings for this run is : 0
 
 -------------------------------------------------------------------------------
  **** **** ******  **  PROGRAM ENDED AT                 2026-08-13 12:22:50.275
 ***** ** ***  *** **   PROGRAM RAN ON            eb3791e2ef3243b6944400b65b9622
 **    ****   ******    PROGRAM RAN BY                                 <unknown>
 ***** **    ** ** **   PROGRAM PROCESS ID                                   547
  **** **  *******  **  PROGRAM STOPPED IN                    /tmp/cp2k_wolq64gj
