 DBCSR| CPU Multiplication driver                                           XSMM (U)
 DBCSR| Multrec recursion limit                                              512 (U)
 DBCSR| Multiplication stack size                                           1000 (D)
 DBCSR| Maximum elements for images                                    UNLIMITED (U)
 DBCSR| Multiplicative factor virtual images                                   1 (U)
 DBCSR| Use multiplication densification                                       T (D)
 DBCSR| Multiplication size stacks                                             3 (U)
 DBCSR| Use memory pool for CPU allocation                                     F (U)
 DBCSR| Number of 3D layers                                               SINGLE (U)
 DBCSR| Use MPI memory allocation                                              F (U)
 DBCSR| Use RMA algorithm                                                      F (U)
 DBCSR| Use Communication thread                                               T (U)
 DBCSR| Communication thread load                                             87 (D)
 DBCSR| MPI: My process id                                                     0
 DBCSR| MPI: Number of processes                                               1
 DBCSR| OMP: Current number of threads                                         1
 DBCSR| OMP: Max number of threads                                             1
 DBCSR| Split modifier for TAS multiplication algorithm                  1.0E+00 (U)


  **** **** ******  **  PROGRAM STARTED AT               2026-05-30 14:25:08.524
 ***** ** ***  *** **   PROGRAM STARTED ON                            spark-c86c
 **    ****   ******    PROGRAM STARTED BY                              kuehne88
 ***** **    ** ** **   PROGRAM PROCESS ID                                127760
  **** **  *******  **  PROGRAM STARTED IN /home/kuehne88/molecular-skala-final-
                                           20260530-prhead/skala-molopt-bench/ru
                                           ns/NH3_GAPW_AE_native_pbe_base

 CP2K| version string:                 CP2K version 2026.1 (Development Version)
 CP2K| source code revision number:                                   362771334d
 CP2K| cp2kflags: omp libint fftw3 libxc gauxc gauxc_mpi gauxc_onedft gauxc_host
 CP2K|             gauxc_device gauxc_cuda parallel scalapack xsmm spglib libtor
 CP2K|            rch
 CP2K| is freely available from                            https://www.cp2k.org/
 CP2K| Program compiled at                                   2026-05-29 22:13:32
 CP2K| Program compiled on                                            spark-c86c
 CP2K| Program compiled for                                              aarch64
 CP2K| Data directory path        /home/kuehne88/cp2k-periodic-skala-verify/data
 CP2K| Input file name                                                 input.inp

 GLOBAL| Force Environment number                                              1
 GLOBAL| Basis set file name                                    BASIS_MOLOPT_UZH
 GLOBAL| Potential file name                                       POTENTIAL_UZH
 GLOBAL| MM Potential file name                                     MM_POTENTIAL
 GLOBAL| Coordinate file name                                      __STD_INPUT__
 GLOBAL| Method name                                                        CP2K
 GLOBAL| Project name                                     NH3_GAPW_AE_native_pbe
 GLOBAL| Run type                                                   ENERGY_FORCE
 GLOBAL| FFT library                                                       FFTW3
 GLOBAL| Diagonalization library                                       ScaLAPACK
 GLOBAL| Cholesky decomposition library                                ScaLAPACK
 GLOBAL| DGEMM library                                                      BLAS
 GLOBAL| Direct generalized diagonalization requested                          F
 GLOBAL| Orthonormality check for eigenvectors                          DISABLED
 GLOBAL| Matrix multiplication library                                 ScaLAPACK
 GLOBAL| All-to-all communication in single precision                          F
 GLOBAL| FFTs using library dependent lengths                                  F
 GLOBAL| Grid backend                                                       AUTO
 GLOBAL| Global print level                                                  LOW
 GLOBAL| MPI I/O enabled                                                       T
 GLOBAL| Total number of message passing processes                             1
 GLOBAL| Number of distributed systems (nodes)                                 1
 GLOBAL| Number of threads for this process                                    1
 GLOBAL| This output is from process                                           0
 GLOBAL| OpenMP stack size per thread (OMP_STACKSIZE)                       512M
 GLOBAL| CPU model name                                                  UNKNOWN
 GLOBAL| CPUID                                                              2200
 GLOBAL| Compiled for CPUID                                                 2000

 *** HINT in environment.F:970 :: The compiler target flags (arm_arch64)   ***
 *** used to build this binary cannot exploit all extensions of this CPU   ***
 *** model (arm_sve256). Consider compiler target flags as part of FCFLAGS ***
 *** and CFLAGS (ARCH file).                                               ***


 MEMORY| system memory details [Kb]
 MEMORY|                        rank 0           min           max       average
 MEMORY| MemTotal            125508532     125508532     125508532     125508532
 MEMORY| MemFree              51275596      51275596      51275596      51275596
 MEMORY| Buffers               1403968       1403968       1403968       1403968
 MEMORY| Cached               61426496      61426496      61426496      61426496
 MEMORY| Slab                  3444120       3444120       3444120       3444120
 MEMORY| SReclaimable          2593024       2593024       2593024       2593024
 MEMORY| MemLikelyFree       116699084     116699084     116699084     116699084


 GENERATE|  Preliminary Number of Bonds generated:                             0
 GENERATE|  Achieved consistency in connectivity generation.

 *******************************************************************************
 *******************************************************************************
 **                                                                           **
 **     #####                         ##              ##                      **
 **    ##   ##            ##          ##              ##                      **
 **   ##     ##                       ##            ######                    **
 **   ##     ##  ##   ##  ##   #####  ##  ##   ####   ##    #####    #####    **
 **   ##     ##  ##   ##  ##  ##      ## ##   ##      ##   ##   ##  ##   ##   **
 **   ##  ## ##  ##   ##  ##  ##      ####     ###    ##   ######   ######    **
 **    ##  ###   ##   ##  ##  ##      ## ##      ##   ##   ##       ##        **
 **     #######   #####   ##   #####  ##  ##  ####    ##    #####   ##        **
 **           ##                                                    ##        **
 **                                                                           **
 **                                                ... make the atoms dance   **
 **                                                                           **
 **            Copyright (C) by CP2K developers group (2000-2026)             **
 **                      J. Chem. Phys. 152, 194103 (2020)                    **
 **                                                                           **
 *******************************************************************************


 TOTAL NUMBERS AND MAXIMUM NUMBERS

  Total number of            - Atomic kinds:                                   2
                             - Atoms:                                          4
                             - Shell sets:                                     9
                             - Shells:                                        47
                             - Primitive Cartesian functions:                 41
                             - Cartesian basis functions:                    177
                             - Spherical basis functions:                    147

  Maximum angular momentum of the orbital basis functions:                     4


 SCF PARAMETERS         Density guess:                                    ATOMIC
                        --------------------------------------------------------
                        max_scf:                                             100
                        max_scf_history:                                       0
                        max_diis:                                              4
                        --------------------------------------------------------
                        eps_scf:                                        1.00E-08
                        eps_scf_history:                                0.00E+00
                        eps_diis:                                       1.00E-01
                        eps_eigval:                                     1.00E-05
                        --------------------------------------------------------
                        level_shift [a.u.]:                             0.000000
                        --------------------------------------------------------
                        Mixing method:                           DIRECT_P_MIXING
                        --------------------------------------------------------
                        No outer SCF

 Extrapolation method: initial_guess

 Number of electrons:                                                         10
 Number of occupied orbitals:                                                  5
 Number of molecular orbitals:                                                 5

 Number of orbital functions:                                                147
 Number of independent orbital functions:                                    147


 SCF WAVEFUNCTION OPTIMIZATION

  Step     Update method      Time    Convergence         Total energy    Change
  ------------------------------------------------------------------------------
     1 P_Mix/Diag. 0.40E+00    3.5     0.81998041       -56.4565601439 -5.65E+01
     2 P_Mix/Diag. 0.40E+00    2.4     0.43395569       -56.4829795135 -2.64E-02
     3 P_Mix/Diag. 0.40E+00    2.4     0.23751590       -56.4970314755 -1.41E-02
     4 P_Mix/Diag. 0.40E+00    2.4     0.13726968       -56.5042224082 -7.19E-03
     5 P_Mix/Diag. 0.40E+00    2.3     0.07854612       -56.5081658716 -3.94E-03
     6 DIIS/Diag.  0.24E-02    2.3     0.04423077       -56.5104256492 -2.26E-03
     7 DIIS/Diag.  0.41E-03    2.3     0.00028555       -56.5137115183 -3.29E-03
     8 DIIS/Diag.  0.18E-03    2.3     0.00021243       -56.5137115547 -3.64E-08
     9 DIIS/Diag.  0.24E-03    2.3     0.00014037       -56.5137115364  1.82E-08
    10 DIIS/Diag.  0.24E-04    2.3     0.00001585       -56.5137115664 -2.99E-08
    11 DIIS/Diag.  0.23E-05    2.3     0.00000097       -56.5137115669 -4.91E-10
    12 DIIS/Diag.  0.16E-05    2.3     0.00000052       -56.5137115669 -1.78E-13
    13 DIIS/Diag.  0.40E-06    2.3     0.00000010       -56.5137115669 -1.05E-12
    14 DIIS/Diag.  0.50E-08    2.3     6.4533E-10       -56.5137115669 -2.98E-13

  *** SCF run converged in    14 steps ***


  Electronic density on regular grids:         -8.1839840511        1.8160159489
  Core density on regular grids:               10.0000000000       -0.0000000000
  Hard and soft densities (Lebedev):         -183.1841997291     -181.3681837795
  Total Rho_soft + Rho1_hard - Rho1_soft      -10.0000000007
  Total charge density (r-space):              -0.0000000007
  Total Rho_soft + Rho0_soft (g-space):         0.0000000013

  Overlap energy of the core charge distribution:               0.00000057824415
  Self energy of the core charge distribution:                -52.03099861979277
  Core Hamiltonian energy:                                     -5.73964064935457
  Hartree energy:                                              17.94388943791275
  Exchange-correlation energy:                                 -3.32908570219155

  GAPW| Exc from hard and soft atomic rho1:                    -4.62135956940073
  GAPW| local Eh = 1 center integrals:                         -8.73651704228644

  Total energy:                                               -56.51371156686915

 ENERGY| Total FORCE_EVAL ( QS ) energy [hartree]            -56.513711566859413

 FORCES| Atomic forces [hartree/bohr]
 FORCES|   Atom     x               y               z               |f|
 FORCES|      1  1.26840055E-10 -1.45099527E-05  6.63124690E-03   6.63126277E-03
 FORCES|      2  1.77294167E-12  5.94654969E-03 -2.21437260E-03   6.34546288E-03
 FORCES|      3 -5.13151214E-03 -2.96602300E-03 -2.20844139E-03   6.32510258E-03
 FORCES|      4  5.13151213E-03 -2.96602299E-03 -2.20844138E-03   6.32510257E-03
 FORCES| Sum     1.25043491E-10 -6.25330742E-09 -8.47407983E-09
 FORCES| Total atomic force                                       1.05323083E-08

 -------------------------------------------------------------------------------
 -                                                                             -
 -                                DBCSR STATISTICS                             -
 -                                                                             -
 -------------------------------------------------------------------------------
 COUNTER                                    TOTAL       BLAS       SMM       ACC
 flops    57 x    30 x     5               256500       0.0%    100.0%      0.0%     
 flops    57 x    57 x     5               487350       0.0%    100.0%      0.0%     
 flops    30 x    57 x     5               513000       0.0%    100.0%      0.0%     
 flops    30 x    30 x     5               810000       0.0%    100.0%      0.0%     
 flops inhomo. stacks                           0       0.0%      0.0%      0.0%
 flops total                         2.066850E+06       0.0%    100.0%      0.0%
 flops max/rank                      2.066850E+06       0.0%    100.0%      0.0%
 matmuls inhomo. stacks                         0       0.0%      0.0%      0.0%
 matmuls total                                150       0.0%    100.0%      0.0%
 number of processed stacks                    60       0.0%    100.0%      0.0%
 average stack size                                     0.0       2.5       0.0
 marketing flops                     3.241350E+06
 -------------------------------------------------------------------------------
 # multiplications                             15
 max memory usage/rank              20.228035E+09
 # max total images/rank                        1
 # max 3D layers                                1
 # MPI messages exchanged                       0
 -------------------------------------------------------------------------------
 -                                                                             -
 -                      DBCSR MESSAGE PASSING PERFORMANCE                      -
 -                                                                             -
 -------------------------------------------------------------------------------
 ROUTINE             CALLS      AVE VOLUME [Bytes]
 MP_Bcast                5                     12.
 MP_Allreduce          102                     12.
 MP_Alltoall           478                  82106.
 MP_ISend               60                     80.
 MP_IRecv               60                     80.
 -------------------------------------------------------------------------------

 -------------------------------------------------------------------------------
 -                                                                             -
 -                                GRID STATISTICS                              -
 -                                                                             -
 -------------------------------------------------------------------------------
 LP    KERNEL             BACKEND                              COUNT     PERCENT
 3     collocate ortho    CPU                                   1440      13.29%
 6     collocate ortho    CPU                                   1440      13.29%
 6     integrate ortho    CPU                                   1360      12.55%
 3     integrate ortho    CPU                                   1348      12.44%
 4     integrate ortho    CPU                                    768       7.09%
 7     integrate ortho    CPU                                    768       7.09%
 4     collocate ortho    CPU                                    720       6.64%
 7     collocate ortho    CPU                                    720       6.64%
 0     collocate ortho    CPU                                    315       2.91%
 0     integrate ortho    CPU                                    294       2.71%
 5     integrate ortho    CPU                                    272       2.51%
 8     integrate ortho    CPU                                    272       2.51%
 5     collocate ortho    CPU                                    240       2.21%
 8     collocate ortho    CPU                                    240       2.21%
 1     integrate ortho    CPU                                    189       1.74%
 1     collocate ortho    CPU                                    180       1.66%
 2     integrate ortho    CPU                                     68       0.63%
 2     collocate ortho    CPU                                     60       0.55%
 6     collocate general  CPU                                     60       0.55%
 6     integrate general  CPU                                     56       0.52%
 9     integrate ortho    CPU                                     16       0.15%
 0     collocate general  CPU                                      4       0.04%
 3     integrate general  CPU                                      4       0.04%
 7     integrate general  CPU                                      4       0.04%
 -------------------------------------------------------------------------------

 -------------------------------------------------------------------------------
 -                                                                             -
 -                          OFFLOAD MEMPOOL STATISTICS                         -
 -                                                                             -
 -------------------------------------------------------------------------------
 Memory consumption                Number of allocations  Used [MiB]  Size [MiB]
 Device                                                7         101         101
 Host                                                  7         101         101
 -------------------------------------------------------------------------------

 MEMORY| Estimated peak process memory [MiB]                                3222

 -------------------------------------------------------------------------------
 -                                                                             -
 -                         MESSAGE PASSING PERFORMANCE                         -
 -                                                                             -
 -------------------------------------------------------------------------------

 ROUTINE             CALLS      AVE VOLUME [Bytes]
 MP_Group               35
 MP_Bcast              148                  49175.
 MP_Allreduce          435                  16702.
 MP_Sync                18
 MP_comm_split          14
 -------------------------------------------------------------------------------


 -------------------------------------------------------------------------------
 -                                                                             -
 -                           R E F E R E N C E S                               -
 -                                                                             -
 -------------------------------------------------------------------------------
 
 CP2K version 2026.1 (Development Version), the CP2K developers group (2026).
 CP2K is freely available from https://www.cp2k.org/ .
 
 M. Iannuzzi, J. Wilhelm, F. Stein, A. Bussy, H. Elgabarty, D. Golze, A. Hehn, 
 M. Graml, S. Marek, B. Sertcan Gökmen, C. Schran, H. Forbert, R. Z. 
 Khaliullin, A. Kozhevnikov, M. Taillefumier, R. Meli, V. V. Rybkin, M. Brehm, 
 R. Schade, O. Schütt, J. V. Pototschnig, H. Mirhosseini, A. Knüpfer, D. Marx, 
 M. Krack, J. Hutter, T. D. Kühne.
 J. Phys. Chem. B 130, 1237-1310 (2026).
 The CP2K Program Package Made Simple.
 https://doi.org/10.1021/acs.jpcb.5c05851

 T. D. Kühne, M. Iannuzzi, M. Del Ben, V. V. Rybkin, P. Seewald, F. Stein, T. 
 Laino, R. Z. Khaliullin, O. Schütt, F. Schiffmann, D. Golze, J. Wilhelm, S. 
 Chulkov, M. H. Bani-Hashemian, V. Weber, U. Borstnik, M. Taillefumier, A. S. 
 Jakobovits, A. Lazzaro, H. Pabst, T. Müller, R. Schade, M. Guidon, S. 
 Andermatt, N. Holmberg, G. K. Schenter, A. Hehn, A. Bussy, F. Belleflamme, G. 
 Tabacchi, A. Glöß, M. Lass, I. Bethune, C. J. Mundy, C. Plessl, M. Watkins, 
 J. VandeVondele, M. Krack, J. Hutter.
 J. Chem. Phys. 152, 194103 (2020).
 CP2K: An electronic structure and molecular dynamics software package - 
 Quickstep: Efficient and accurate electronic structure calculations.
 https://doi.org/10.1063/5.0007045

 O. Schuett, P. Messmer, J. Hutter, J. VandeVondele.
 Electronic Structure Calculations on Graphics Processing Units, 173-190 (2016).
 GPU-Accelerated Sparse Matrix-Matrix Multiplication for Linear Scaling Density 
 Functional Theory.
 https://doi.org/10.1002/9781118670712.ch8

 A. Heinecke, G. Henry, M. Hutchinson, H. Pabst.
 Proceedings of Intl. Supercomputing Conference, 981-991 (2016).
 LIBXSMM: Accelerating Small Matrix Multiplications by Runtime Code Generation.
 https://doi.org/10.1109/SC.2016.83

 U. Borstnik, J. VandeVondele, V. Weber, J. Hutter.
 Parallel Comput. 40, 47-58 (2014).
 Sparse matrix multiplication: The distributed block-compressed sparse row 
 library.
 https://doi.org/10.1016/j.parco.2014.03.012

 J. VandeVondele, J. Hutter.
 J. Chem. Phys. 127, 114105 (2007).
 Gaussian basis sets for accurate calculations on molecular systems in gas and 
 condensed phases.
 https://doi.org/10.1063/1.2770708

 M. Frigo, S. G. Johnson.
 Proc. IEEE 93, 216-231 (2005).
 The design and implementation of FFTW3.
 https://doi.org/10.1109/JPROC.2004.840301

 M. Krack, M. Parrinello.
 Phys. Chem. Chem. Phys. 2, 2105-2112 (2000).
 All-electron ab-initio molecular dynamics.
 https://doi.org/10.1039/b001167n

 G. Lippert, J. Hutter, M. Parrinello.
 Theor. Chem. Acc. 103, 124-140 (1999).
 The Gaussian and augmented-plane-wave density functional method for ab initio 
 molecular dynamics simulations.
 https://doi.org/10.1007/s002140050523

 G. J. Martyna, M. E. Tuckerman.
 J. Chem. Phys. 110, 2810-2821 (1999).
 A reciprocal space based method for treating long range interactions in ab 
 initio and force-field-based calculations in clusters.
 https://doi.org/10.1063/1.477923

 J. P. Perdew, K. Burke, M. Ernzerhof.
 Phys. Rev. Lett. 77, 3865-3868 (1996).
 Generalized gradient approximation made simple.
 https://doi.org/10.1103/PhysRevLett.77.3865


 -------------------------------------------------------------------------------
 -                                                                             -
 -                                T I M I N G                                  -
 -                                                                             -
 -------------------------------------------------------------------------------
 SUBROUTINE                       CALLS  ASD         SELF TIME        TOTAL TIME
                                MAXIMUM       AVERAGE  MAXIMUM  AVERAGE  MAXIMUM
 CP2K                                 1  1.0    0.164    0.164   41.267   41.267
 qs_forces                            1  2.0    0.000    0.000   37.225   37.225
 qs_energies                          1  3.0    0.000    0.000   34.563   34.563
 scf_env_do_scf                       1  4.0    0.000    0.000   34.058   34.058
 scf_env_do_scf_inner_loop           14  5.0    0.001    0.001   34.058   34.058
 rebuild_ks_matrix                   15  6.8    0.000    0.000   32.261   32.261
 qs_ks_build_kohn_sham_matrix        15  7.8    0.002    0.002   32.261   32.261
 qs_ks_update_qs_env                 14  6.0    0.000    0.000   29.617   29.617
 fft_wrap_pw1pw2                    274 11.1    0.002    0.002   24.515   24.515
 fft_wrap_pw1pw2_300                183 12.5    3.517    3.517   23.130   23.130
 qs_vxc_create                       15  8.8    0.000    0.000   20.615   20.615
 xc_vxc_pw_create                    15  9.8    0.421    0.421   20.615   20.615
 xc_pw_derive                        93 11.7    0.000    0.000   12.860   12.860
 fft3d_s                            275 13.1   11.786   11.786   11.790   11.790
 xc_rho_set_and_dset_create          16 10.7    1.337    1.337   11.643   11.643
 xc_pw_divergence                    15 10.8    0.000    0.000    9.017    9.017
 qs_rho_update_rho_low               15  6.0    0.000    0.000    4.835    4.835
 calculate_rho_elec                  15  7.0    0.181    0.181    4.818    4.818
 pw_gather_s                        136 12.8    4.738    4.738    4.738    4.738
 density_rs2pw                       15  8.0    0.000    0.000    4.402    4.402
 xc_functional_eval                 136 10.9    0.000    0.000    4.397    4.397
 pbe_lda_eval                       136 11.9    4.397    4.397    4.397    4.397
 qs_init_subsys                       1  2.0    0.001    0.001    3.848    3.848
 qs_env_setup                         1  3.0    0.000    0.000    3.818    3.818
 qs_env_rebuild_pw_env                3  3.7    0.000    0.000    3.818    3.818
 pw_env_rebuild                       1  5.0    0.000    0.000    3.818    3.818
 pw_grid_setup                        5  6.0    0.000    0.000    3.815    3.815
 pw_grid_setup_internal               5  7.0    0.036    0.036    3.815    3.815
 pw_scatter_s                       138 13.5    3.806    3.806    3.806    3.806
 pw_grid_sort                         5  8.0    2.766    2.766    3.352    3.352
 prepare_gapw_den                    15  8.8    0.000    0.000    3.065    3.065
 sum_up_and_integrate                15  8.8    0.000    0.000    3.037    3.037
 integrate_v_rspace                  15  9.8    0.001    0.001    2.936    2.936
 qs_ks_update_qs_env_forces           1  3.0    0.000    0.000    2.645    2.645
 pw_poisson_solve                    15  8.8    0.000    0.000    2.611    2.611
 potential_pw2rs                     15 10.8    0.011    0.011    2.520    2.520
 put_rho0_on_grid                    15  9.8    0.184    0.184    2.478    2.478
 pw_derive                          138 12.1    1.480    1.480    1.480    1.480
 pw_poisson_rebuild                  15  9.8    0.025    0.025    1.154    1.154
 MTin_create_screen_fn                1 11.0    0.058    0.058    1.130    1.130
 pw_copy                            260 11.2    0.826    0.826    0.826    0.826
 -------------------------------------------------------------------------------

 The number of warnings for this run is : 0
 
 -------------------------------------------------------------------------------
  **** **** ******  **  PROGRAM ENDED AT                 2026-05-30 14:25:50.050
 ***** ** ***  *** **   PROGRAM RAN ON                                spark-c86c
 **    ****   ******    PROGRAM RAN BY                                  kuehne88
 ***** **    ** ** **   PROGRAM PROCESS ID                                127760
  **** **  *******  **  PROGRAM STOPPED IN /home/kuehne88/molecular-skala-final-
                                           20260530-prhead/skala-molopt-bench/ru
                                           ns/NH3_GAPW_AE_native_pbe_base
