&GLOBAL
  PRINT_LEVEL MEDIUM
  PROJECT_NAME 9faa29e10bfe22b664c0996920a1830ee09ceaa6
  RUN_TYPE ENERGY
&END GLOBAL
&FORCE_EVAL
  METHOD Quickstep
  &DFT
    BASIS_SET_FILE_NAME BASIS_MOLOPT_UZH
    POTENTIAL_FILE_NAME POTENTIAL_UZH
    CHARGE -1
    MULTIPLICITY 1
    UKS FALSE
    &MGRID
      CUTOFF 1000
      REL_CUTOFF 60
      NGRIDS 4
    &END MGRID
    &POISSON
      PERIODIC NONE
      POISSON_SOLVER ANALYTIC
    &END POISSON
    &QS
      EPS_DEFAULT 1e-10
    &END QS
    &SCF
      EPS_SCF 1e-05
      MAX_SCF 100
      SCF_GUESS ATOMIC
      &DIAGONALIZATION
      &END DIAGONALIZATION
      &MIXING
        METHOD DIRECT_P_MIXING
        ALPHA 0.4
        NMIXING 2
      &END MIXING
    &END SCF
    &XC
      &XC_FUNCTIONAL
        &GAUXC
          FUNCTIONAL PBE
          MODEL aug-s0-funv2-cpu.fun
          GRID FINE
          PRUNING_SCHEME ROBUST
          RADIAL_QUADRATURE MURAKNOWLES
        &END GAUXC
      &END XC_FUNCTIONAL
    &END XC
    &PRINT
      &MO
        ENERGIES T
        OCCNUMS  T
        &EACH
          QS_SCF 0
        &END
      &END
    &END
  &END DFT
  &SUBSYS
    &CELL
      ABC 39.0000 40.0000 41.0000
      ALPHA_BETA_GAMMA 90.0000 90.0000 90.0000
      PERIODIC NONE
    &END CELL
    &TOPOLOGY
      &CENTER_COORDINATES
      &END
    &END TOPOLOGY
    &COORD
      H       -0.9983999981       -3.3493699985       -3.3711299982
      O       -0.3155500006       -2.9592199974       -2.8028700025
      C        0.1985099983       -3.9960300005       -1.9532700005
      H        0.6256499998       -4.8118699993       -2.5504199974
      H       -0.5892699979       -4.4050900011       -1.3061699983
      C        1.2609800002       -3.4020400011       -1.0572800011
      H        1.6524699997       -4.1984399978       -0.4105700025
      O        2.3519600010       -2.8533799990       -1.8413099989
      C        2.9085499988       -1.7262100026       -1.1878800000
      H        3.9708899977       -1.8749299977       -0.9891100011
      N        2.8015100012       -0.5491499991       -2.0973200014
      C        1.8906799995       -0.5020799984       -3.1245299996
      H        1.2785500012       -1.3922500010       -3.2298299991
      C        1.7753200026        0.5757199974       -3.9399100006
      H        1.0428799991        0.5923300022       -4.7351899989
      C        2.6185000003        1.7273499985       -3.7426099977
      O        2.6293500011        2.7631099976       -4.4177700025
      N        3.4857200000        1.6066500003       -2.6430800012
      H        4.0862699975        2.4027900016       -2.4436900024
      C        3.6229800011        0.5318099996       -1.7919300021
      O        4.3993500000        0.5212000018       -0.8360999982
      C        0.8002799981       -2.2356899992       -0.1850900008
      H        0.1019600022       -1.5983000019       -0.7357299988
      C        2.1173899996       -1.5057400020        0.1131099989
      H        1.9846899979       -0.4398500020        0.3272700005
      O        2.8085099997       -2.1544399980        1.1803099983
      H        2.1121100017       -2.5189400019        1.7624099996
      O        0.1899999980       -2.7161299994        1.0197400004
      P       -1.2673700002       -2.0613699983        1.4527699983
      O       -1.6473600000       -2.8062500002        2.6958899977
      O       -2.1706300002       -1.9498899975        0.2648199987
      O       -0.8632500012       -0.5210800003        1.7995699981
      C       -0.0464799998       -0.1518499989        2.9265400025
      H        0.9726800012        0.0509299992        2.5834799997
      H       -0.0374300006       -0.9523899976        3.6743299976
      C       -0.6795100003        1.1007000020        3.5063600014
      H       -0.1314699980        1.4128299990        4.4000600023
      O       -0.6089100026        2.2020100024        2.5586799986
      C       -1.8754899995        2.4105300015        1.9348300004
      H       -2.1869200009        3.4361199978        2.1421300026
      N       -1.7280300018        2.3603300023        0.4609200023
      C       -1.9794699981        1.2456299981       -0.3066000000
      H       -2.3206400022        0.3613500024        0.2138600004
      C       -1.7951100026        1.2142900016       -1.6497400009
      H       -2.0114700002        0.3138599991       -2.2089499974
      C       -1.3081499995        2.3766500021       -2.3438600019
      O       -1.1243500004        2.4984500010       -3.5589999997
      N       -1.0088899996        3.4466900003       -1.4828599987
      H       -0.6331800010        4.2880799979       -1.9126400018
      C       -1.1705800011        3.5088500025       -0.1154799984
      O       -0.8478000004        4.4969399986        0.5413100005
      C       -2.1638400004        0.9094299999        3.8244700026
      H       -2.4046200022       -0.1386900019        4.0115399993
      C       -2.8947099986        1.4311700005        2.5573400002
      H       -3.1166600020        0.5925199980        1.9006200008
      O       -4.1300899982        2.0622099983        2.8628600024
      H       -4.0036899993        2.4486800006        3.7549100023
      O       -2.5320599983        1.7100600010        4.9625300003
      H       -3.0963399993        1.1713400001        5.5392699974
    &END COORD
    &KIND C
      BASIS_SET TZVP-MOLOPT-SCAN-GTH-q4
      POTENTIAL GTH-SCAN-q4
    &END KIND
    &KIND H
      BASIS_SET TZVP-MOLOPT-SCAN-GTH-q1
      POTENTIAL GTH-SCAN-q1
    &END KIND
    &KIND N
      BASIS_SET TZVP-MOLOPT-SCAN-GTH-q5
      POTENTIAL GTH-SCAN-q5
    &END KIND
    &KIND O
      BASIS_SET TZVP-MOLOPT-SCAN-GTH-q6
      POTENTIAL GTH-SCAN-q6
    &END KIND
    &KIND P
      BASIS_SET TZVP-MOLOPT-SCAN-GTH-q5
      POTENTIAL GTH-SCAN-q5
    &END KIND
  &END SUBSYS
&END FORCE_EVAL

================================================================================
=== END OF CP2K INPUT / START OF CP2K OUTPUT ===
================================================================================

 DBCSR| CPU Multiplication driver                                           BLAS (U)
 DBCSR| Multrec recursion limit                                              512 (U)
 DBCSR| Multiplication stack size                                           1000 (D)
 DBCSR| Maximum elements for images                                    UNLIMITED (U)
 DBCSR| Multiplicative factor virtual images                                   1 (U)
 DBCSR| Use multiplication densification                                       T (D)
 DBCSR| Multiplication size stacks                                             3 (U)
 DBCSR| Use memory pool for CPU allocation                                     F (U)
 DBCSR| Number of 3D layers                                               SINGLE (U)
 DBCSR| Use MPI memory allocation                                              F (U)
 DBCSR| Use RMA algorithm                                                      F (U)
 DBCSR| Use Communication thread                                               T (U)
 DBCSR| Communication thread load                                             87 (D)
 DBCSR| MPI: My process id                                                     0
 DBCSR| MPI: Number of processes                                              16
 DBCSR| OMP: Current number of threads                                         1
 DBCSR| OMP: Max number of threads                                             1
 DBCSR| Split modifier for TAS multiplication algorithm                  1.0E+00 (U)


  **** **** ******  **  PROGRAM STARTED AT               2026-08-13 12:47:34.044
 ***** ** ***  *** **   PROGRAM STARTED ON        eb3791e2ef3243b6944400b65b9622
 **    ****   ******    PROGRAM STARTED BY                             <unknown>
 ***** **    ** ** **   PROGRAM PROCESS ID                                  1368
  **** **  *******  **  PROGRAM STARTED IN                    /tmp/cp2k_lb2_jiqu

 CP2K| version string:                                       CP2K version 2026.2
 CP2K| source code revision number:                                  git:c92cc08
 CP2K| cp2kflags: omp libint fftw3 libxc gauxc gauxc_mpi gauxc_onedft gauxc_host
 CP2K|             parallel scalapack mpi_f08 spglib sirius libtorch hdf5
 CP2K| is freely available from                            https://www.cp2k.org/
 CP2K| Program compiled at                                   2026-08-13 02:05:42
 CP2K| Program compiled on                                                      
 CP2K| Program compiled for                                               x86_64
 CP2K| Data directory path                             /opt/cp2k/share/cp2k/data
 CP2K| Input file name                                            cp2k_input.inp

 GLOBAL| Force Environment number                                              1
 GLOBAL| Basis set file name                                    BASIS_MOLOPT_UZH
 GLOBAL| Potential file name                                       POTENTIAL_UZH
 GLOBAL| MM Potential file name                                     MM_POTENTIAL
 GLOBAL| Coordinate file name                                      __STD_INPUT__
 GLOBAL| Method name                                                        CP2K
 GLOBAL| Project name                   9faa29e10bfe22b664c0996920a1830ee09ceaa6
 GLOBAL| Run type                                                         ENERGY
 GLOBAL| FFT library                                                       FFTW3
 GLOBAL| Diagonalization library                                       ScaLAPACK
 GLOBAL| Cholesky decomposition library                                ScaLAPACK
 GLOBAL| DGEMM library                                                      BLAS
 GLOBAL| Direct generalized diagonalization requested                          F
 GLOBAL| Orthonormality check for eigenvectors                          DISABLED
 GLOBAL| Matrix multiplication library                                 ScaLAPACK
 GLOBAL| All-to-all communication in single precision                          F
 GLOBAL| FFTs using library dependent lengths                                  F
 GLOBAL| Grid backend                                                       AUTO
 GLOBAL| Global print level                                               MEDIUM
 GLOBAL| MPI I/O enabled                                                       T
 GLOBAL| Total number of message passing processes                            16
 GLOBAL| Number of distributed systems (nodes)                                 1
 GLOBAL| Number of threads for this process                                    1
 GLOBAL| This output is from process                                           0
 GLOBAL| OpenMP stack size per thread (OMP_STACKSIZE)                        16M
 GLOBAL| CPU model name                          AMD EPYC 9V74 80-Core Processor
 GLOBAL| CPUID                                                              1002

 MEMORY| system memory details [Kb]
 MEMORY|                        rank 0           min           max       average
 MEMORY| MemTotal            263924008     263924008     263924008     263924008
 MEMORY| MemFree             236119292     236119292     236119292     236119292
 MEMORY| Buffers                405880        405880        405880        405880
 MEMORY| Cached               18919280      18919280      18919280      18919280
 MEMORY| Slab                  2068412       2068412       2068412       2068412
 MEMORY| SReclaimable          1674728       1674728       1674728       1674728
 MEMORY| MemLikelyFree       257119180     257119180     257119180     257119180


 *** Fundamental physical constants (SI units) ***

 *** Literature: B. J. Mohr and B. N. Taylor,
 ***             CODATA recommended values of the fundamental physical
 ***             constants: 2006, Web Version 5.1
 ***             http://physics.nist.gov/constants

 Speed of light in vacuum [m/s]                             2.99792458000000E+08
 Magnetic constant or permeability of vacuum [N/A**2]       1.25663706143592E-06
 Electric constant or permittivity of vacuum [F/m]          8.85418781762039E-12
 Planck constant (h) [J*s]                                  6.62606896000000E-34
 Planck constant (h-bar) [J*s]                              1.05457162825177E-34
 Elementary charge [C]                                      1.60217648700000E-19
 Electron mass [kg]                                         9.10938215000000E-31
 Electron g factor [ ]                                     -2.00231930436220E+00
 Proton mass [kg]                                           1.67262163700000E-27
 Fine-structure constant                                    7.29735253760000E-03
 Rydberg constant [1/m]                                     1.09737315685270E+07
 Avogadro constant [1/mol]                                  6.02214179000000E+23
 Boltzmann constant [J/K]                                   1.38065040000000E-23
 Atomic mass unit [kg]                                      1.66053878200000E-27
 Bohr radius [m]                                            5.29177208590000E-11

 *** Conversion factors ***

 [u] -> [a.u.]                                              1.82288848426455E+03
 [Angstrom] -> [Bohr] = [a.u.]                              1.88972613288564E+00
 [a.u.] = [Bohr] -> [Angstrom]                              5.29177208590000E-01
 [a.u.] -> [s]                                              2.41888432650478E-17
 [a.u.] -> [fs]                                             2.41888432650478E-02
 [a.u.] -> [J]                                              4.35974393937059E-18
 [a.u.] -> [N]                                              8.23872205491840E-08
 [a.u.] -> [K]                                              3.15774647902944E+05
 [a.u.] -> [kJ/mol]                                         2.62549961709828E+03
 [a.u.] -> [kcal/mol]                                       6.27509468713739E+02
 [a.u.] -> [Pa]                                             2.94210107994716E+13
 [a.u.] -> [bar]                                            2.94210107994716E+08
 [a.u.] -> [atm]                                            2.90362800883016E+08
 [a.u.] -> [eV]                                             2.72113838565563E+01
 [a.u.] -> [Hz]                                             6.57968392072181E+15
 [a.u.] -> [1/cm] (wave numbers)                            2.19474631370540E+05
 [a.u./Bohr**2] -> [1/cm]                                   5.14048714338585E+03
 

 CELL| Volume [angstrom^3]:                                         63960.000000
 CELL| Vector a [angstrom]:      39.000     0.000     0.000   |a| =    39.000000
 CELL| Vector b [angstrom]:       0.000    40.000     0.000   |b| =    40.000000
 CELL| Vector c [angstrom]:       0.000     0.000    41.000   |c| =    41.000000
 CELL| Angle (b,c), alpha [degree]:                                    90.000000
 CELL| Angle (a,c), beta  [degree]:                                    90.000000
 CELL| Angle (a,b), gamma [degree]:                                    90.000000
 CELL| Numerically orthorhombic:                                             YES
 CELL| Periodicity                                                          NONE

 CELL_REF| Volume [angstrom^3]:                                     63960.000000
 CELL_REF| Vector a [angstrom    39.000     0.000     0.000   |a| =    39.000000
 CELL_REF| Vector b [angstrom     0.000    40.000     0.000   |b| =    40.000000
 CELL_REF| Vector c [angstrom     0.000     0.000    41.000   |c| =    41.000000
 CELL_REF| Angle (b,c), alpha [degree]:                                90.000000
 CELL_REF| Angle (a,c), beta  [degree]:                                90.000000
 CELL_REF| Angle (a,b), gamma [degree]:                                90.000000
 CELL_REF| Numerically orthorhombic:                                         YES
 CELL_REF| Periodicity                                                      NONE

 GENERATE|  Preliminary Number of Bonds generated:                             0
 GENERATE|  Achieved consistency in connectivity generation.

 *******************************************************************************
 *******************************************************************************
 **                                                                           **
 **     #####                         ##              ##                      **
 **    ##   ##            ##          ##              ##                      **
 **   ##     ##                       ##            ######                    **
 **   ##     ##  ##   ##  ##   #####  ##  ##   ####   ##    #####    #####    **
 **   ##     ##  ##   ##  ##  ##      ## ##   ##      ##   ##   ##  ##   ##   **
 **   ##  ## ##  ##   ##  ##  ##      ####     ###    ##   ######   ######    **
 **    ##  ###   ##   ##  ##  ##      ## ##      ##   ##   ##       ##        **
 **     #######   #####   ##   #####  ##  ##  ####    ##    #####   ##        **
 **           ##                                                    ##        **
 **                                                                           **
 **                                                ... make the atoms dance   **
 **                                                                           **
 **            Copyright (C) by CP2K developers group (2000-2026)             **
 **                      J. Chem. Phys. 152, 194103 (2020)                    **
 **                                                                           **
 *******************************************************************************

 DFT| Spin restricted Kohn-Sham (RKS) calculation                            RKS
 DFT| Multiplicity                                                             1
 DFT| Number of spin states                                                    1
 DFT| Charge                                                                  -1
 DFT| Self-interaction correction (SIC)                                       NO
 DFT| Cutoffs: density                                              1.000000E-10
 DFT|          gradient                                             1.000000E-10
 DFT|          tau                                                  1.000000E-10
 DFT|          cutoff_smoothing_range                               0.000000E+00
 DFT| XC density smoothing                                                  NONE
 DFT| XC derivatives                                                          PW

 FUNCTIONAL| GAUXC:
 FUNCTIONAL| Functional computed by GauXC Skala model aug-s0-funv2-cpu.fun      


 QS| Method:                                                                 GPW
 QS| Density plane wave grid type                        NON-SPHERICAL FULLSPACE
 QS| Number of grid levels:                                                    4
 QS| Density cutoff [a.u.]:                                                500.0
 QS| Multi grid cutoff [a.u.]: 1) grid level                               500.0
 QS|                           2) grid level                               166.7
 QS|                           3) grid level                                55.6
 QS|                           4) grid level                                18.5
 QS| Grid level progression factor:                                          3.0
 QS| Relative density cutoff [a.u.]:                                        30.0
 QS| Interaction thresholds: eps_pgf_orb:                                1.0E-05
 QS|                         eps_filter_matrix:                          0.0E+00
 QS|                         eps_core_charge:                            1.0E-12
 QS|                         eps_rho_gspace:                             1.0E-10
 QS|                         eps_rho_rspace:                             1.0E-10
 QS|                         eps_gvg_rspace:                             1.0E-05
 QS|                         eps_ppl:                                    1.0E-02
 QS|                         eps_ppnl:                                   1.0E-07


 ATOMIC KIND INFORMATION

  1. Atomic kind: H                                     Number of atoms:      22

     Orbital Basis Set                                   TZVP-MOLOPT-SCAN-GTH-q1

       Number of orbital shell sets:                                           1
       Number of orbital shells:                                               4
       Number of primitive Cartesian functions:                                5
       Number of Cartesian basis functions:                                    6
       Number of spherical basis functions:                                    6
       Norm type:                                                              2

       Normalised Cartesian orbitals:

                        Set   Shell   Orbital            Exponent    Coefficient

                          1       1    2s                9.168765       0.095357
                                                         2.161194       0.125778
                                                         0.619868       0.162183
                                                         0.161316       0.074849
                                                         0.412255       0.090962

                          1       2    3s                9.168765      -0.435739
                                                         2.161194      -0.868971
                                                         0.619868      -0.406683
                                                         0.161316      -0.142964
                                                         0.412255       0.978336

                          1       3    4s                9.168765       0.385896
                                                         2.161194       1.113624
                                                         0.619868       0.043366
                                                         0.161316      -0.067676
                                                         0.412255       0.053421

                          1       4    3px               9.168765      -1.788640
                                                         2.161194       0.906920
                                                         0.619868       0.273605
                                                         0.161316       0.091389
                                                         0.412255       0.008094
                          1       4    3py               9.168765      -1.788640
                                                         2.161194       0.906920
                                                         0.619868       0.273605
                                                         0.161316       0.091389
                                                         0.412255       0.008094
                          1       4    3pz               9.168765      -1.788640
                                                         2.161194       0.906920
                                                         0.619868       0.273605
                                                         0.161316       0.091389
                                                         0.412255       0.008094

       Atomic covalent radius [Angstrom]:                                  0.320

       Atomic van der Waals radius [Angstrom]:                             1.090

     GTH Potential information for                                   GTH-SCAN-q1

       Description:                       Goedecker-Teter-Hutter pseudopotential
                                           Goedecker et al., PRB 54, 1703 (1996)
                                          Hartwigsen et al., PRB 58, 3641 (1998)
                                                      Krack, TCA 114, 145 (2005)

       Gaussian exponent of the core charge distribution:              12.429142
       Electronic configuration (s p d ...):                       1   0   0   0

       Parameters of the local part of the GTH pseudopotential:

                          rloc        C1          C2          C3          C4
                        0.200569   -4.177243    0.723816

  2. Atomic kind: O                                     Number of atoms:      14

     Orbital Basis Set                                   TZVP-MOLOPT-SCAN-GTH-q6

       Number of orbital shell sets:                                           1
       Number of orbital shells:                                               7
       Number of primitive Cartesian functions:                                5
       Number of Cartesian basis functions:                                   18
       Number of spherical basis functions:                                   17
       Norm type:                                                              2

       Normalised Cartesian orbitals:

                        Set   Shell   Orbital            Exponent    Coefficient

                          1       1    2s               10.257817      -0.419073
                                                         3.644287      -0.215759
                                                         1.402225       0.311285
                                                         0.522057       0.263821
                                                         0.168189       0.045116

                          1       2    3s               10.257817       0.362459
                                                         3.644287       0.180656
                                                         1.402225      -0.203664
                                                         0.522057      -0.159611
                                                         0.168189       0.244682

                          1       3    4s               10.257817      -2.413417
                                                         3.644287      -0.850901
                                                         1.402225       0.170654
                                                         0.522057      -0.131214
                                                         0.168189       0.003984

                          1       4    3px              10.257817      -1.672017
                                                         3.644287      -1.345385
                                                         1.402225      -0.751048
                                                         0.522057      -0.276645
                                                         0.168189      -0.033014
                          1       4    3py              10.257817      -1.672017
                                                         3.644287      -1.345385
                                                         1.402225      -0.751048
                                                         0.522057      -0.276645
                                                         0.168189      -0.033014
                          1       4    3pz              10.257817      -1.672017
                                                         3.644287      -1.345385
                                                         1.402225      -0.751048
                                                         0.522057      -0.276645
                                                         0.168189      -0.033014

                          1       5    4px              10.257817       1.559903
                                                         3.644287       0.989060
                                                         1.402225       0.672543
                                                         0.522057       0.141420
                                                         0.168189      -0.167208
                          1       5    4py              10.257817       1.559903
                                                         3.644287       0.989060
                                                         1.402225       0.672543
                                                         0.522057       0.141420
                                                         0.168189      -0.167208
                          1       5    4pz              10.257817       1.559903
                                                         3.644287       0.989060
                                                         1.402225       0.672543
                                                         0.522057       0.141420
                                                         0.168189      -0.167208

                          1       6    5px              10.257817       5.420840
                                                         3.644287       0.742781
                                                         1.402225       2.786765
                                                         0.522057      -0.733751
                                                         0.168189       0.023040
                          1       6    5py              10.257817       5.420840
                                                         3.644287       0.742781
                                                         1.402225       2.786765
                                                         0.522057      -0.733751
                                                         0.168189       0.023040
                          1       6    5pz              10.257817       5.420840
                                                         3.644287       0.742781
                                                         1.402225       2.786765
                                                         0.522057      -0.733751
                                                         0.168189       0.023040

                          1       7    4dx2             10.257817      -1.249026
                                                         3.644287       1.475740
                                                         1.402225       0.993741
                                                         0.522057       0.395456
                                                         0.168189      -0.006736
                          1       7    4dxy             10.257817      -2.163376
                                                         3.644287       2.556057
                                                         1.402225       1.721210
                                                         0.522057       0.684950
                                                         0.168189      -0.011667
                          1       7    4dxz             10.257817      -2.163376
                                                         3.644287       2.556057
                                                         1.402225       1.721210
                                                         0.522057       0.684950
                                                         0.168189      -0.011667
                          1       7    4dy2             10.257817      -1.249026
                                                         3.644287       1.475740
                                                         1.402225       0.993741
                                                         0.522057       0.395456
                                                         0.168189      -0.006736
                          1       7    4dyz             10.257817      -2.163376
                                                         3.644287       2.556057
                                                         1.402225       1.721210
                                                         0.522057       0.684950
                                                         0.168189      -0.011667
                          1       7    4dz2             10.257817      -1.249026
                                                         3.644287       1.475740
                                                         1.402225       0.993741
                                                         0.522057       0.395456
                                                         0.168189      -0.006736

       Atomic covalent radius [Angstrom]:                                  0.730

       Atomic van der Waals radius [Angstrom]:                             1.520

     GTH Potential information for                                   GTH-SCAN-q6

       Description:                       Goedecker-Teter-Hutter pseudopotential
                                           Goedecker et al., PRB 54, 1703 (1996)
                                          Hartwigsen et al., PRB 58, 3641 (1998)
                                                      Krack, TCA 114, 145 (2005)

       Gaussian exponent of the core charge distribution:               8.656553
       Electronic configuration (s p d ...):                       2   4   0   0

       Parameters of the local part of the GTH pseudopotential:

                          rloc        C1          C2          C3          C4
                        0.240333  -16.794986    2.452457

       Parameters of the non-local part of the GTH pseudopotential:

                   l      r(l)      h(i,j,l)

                   0    0.221500   18.441562

  3. Atomic kind: C                                     Number of atoms:      18

     Orbital Basis Set                                   TZVP-MOLOPT-SCAN-GTH-q4

       Number of orbital shell sets:                                           1
       Number of orbital shells:                                               7
       Number of primitive Cartesian functions:                                5
       Number of Cartesian basis functions:                                   18
       Number of spherical basis functions:                                   17
       Norm type:                                                              2

       Normalised Cartesian orbitals:

                        Set   Shell   Orbital            Exponent    Coefficient

                          1       1    2s                5.623460      -0.349209
                                                         2.098559      -0.253875
                                                         0.820511       0.248209
                                                         0.317331       0.216287
                                                         0.111116       0.012850

                          1       2    3s                5.623460       0.160090
                                                         2.098559       0.144150
                                                         0.820511      -0.103023
                                                         0.317331       0.001075
                                                         0.111116       0.142208

                          1       3    4s                5.623460      -1.207693
                                                         2.098559      -1.266789
                                                         0.820511       0.734368
                                                         0.317331      -0.329587
                                                         0.111116       0.046451

                          1       4    3px               5.623460      -0.717953
                                                         2.098559      -0.559659
                                                         0.820511      -0.405261
                                                         0.317331      -0.145150
                                                         0.111116      -0.020126
                          1       4    3py               5.623460      -0.717953
                                                         2.098559      -0.559659
                                                         0.820511      -0.405261
                                                         0.317331      -0.145150
                                                         0.111116      -0.020126
                          1       4    3pz               5.623460      -0.717953
                                                         2.098559      -0.559659
                                                         0.820511      -0.405261
                                                         0.317331      -0.145150
                                                         0.111116      -0.020126

                          1       5    4px               5.623460       0.831730
                                                         2.098559       0.877901
                                                         0.820511       0.415963
                                                         0.317331       0.032156
                                                         0.111116      -0.090730
                          1       5    4py               5.623460       0.831730
                                                         2.098559       0.877901
                                                         0.820511       0.415963
                                                         0.317331       0.032156
                                                         0.111116      -0.090730
                          1       5    4pz               5.623460       0.831730
                                                         2.098559       0.877901
                                                         0.820511       0.415963
                                                         0.317331       0.032156
                                                         0.111116      -0.090730

                          1       6    5px               5.623460       1.619151
                                                         2.098559       2.412091
                                                         0.820511       0.659876
                                                         0.317331      -0.314050
                                                         0.111116       0.028213
                          1       6    5py               5.623460       1.619151
                                                         2.098559       2.412091
                                                         0.820511       0.659876
                                                         0.317331      -0.314050
                                                         0.111116       0.028213
                          1       6    5pz               5.623460       1.619151
                                                         2.098559       2.412091
                                                         0.820511       0.659876
                                                         0.317331      -0.314050
                                                         0.111116       0.028213

                          1       7    4dx2              5.623460      -2.005729
                                                         2.098559       1.064556
                                                         0.820511       0.464044
                                                         0.317331       0.120863
                                                         0.111116       0.003311
                          1       7    4dxy              5.623460      -3.474025
                                                         2.098559       1.843865
                                                         0.820511       0.803748
                                                         0.317331       0.209340
                                                         0.111116       0.005735
                          1       7    4dxz              5.623460      -3.474025
                                                         2.098559       1.843865
                                                         0.820511       0.803748
                                                         0.317331       0.209340
                                                         0.111116       0.005735
                          1       7    4dy2              5.623460      -2.005729
                                                         2.098559       1.064556
                                                         0.820511       0.464044
                                                         0.317331       0.120863
                                                         0.111116       0.003311
                          1       7    4dyz              5.623460      -3.474025
                                                         2.098559       1.843865
                                                         0.820511       0.803748
                                                         0.317331       0.209340
                                                         0.111116       0.005735
                          1       7    4dz2              5.623460      -2.005729
                                                         2.098559       1.064556
                                                         0.820511       0.464044
                                                         0.317331       0.120863
                                                         0.111116       0.003311

       Atomic covalent radius [Angstrom]:                                  0.770

       Atomic van der Waals radius [Angstrom]:                             1.700

     GTH Potential information for                                   GTH-SCAN-q4

       Description:                       Goedecker-Teter-Hutter pseudopotential
                                           Goedecker et al., PRB 54, 1703 (1996)
                                          Hartwigsen et al., PRB 58, 3641 (1998)
                                                      Krack, TCA 114, 145 (2005)

       Gaussian exponent of the core charge distribution:               4.454624
       Electronic configuration (s p d ...):                       2   2   0   0

       Parameters of the local part of the GTH pseudopotential:

                          rloc        C1          C2          C3          C4
                        0.335027   -8.822616    1.299117

       Parameters of the non-local part of the GTH pseudopotential:

                   l      r(l)      h(i,j,l)

                   0    0.303798    9.625763

  4. Atomic kind: N                                     Number of atoms:       4

     Orbital Basis Set                                   TZVP-MOLOPT-SCAN-GTH-q5

       Number of orbital shell sets:                                           1
       Number of orbital shells:                                               7
       Number of primitive Cartesian functions:                                5
       Number of Cartesian basis functions:                                   18
       Number of spherical basis functions:                                   17
       Norm type:                                                              2

       Normalised Cartesian orbitals:

                        Set   Shell   Orbital            Exponent    Coefficient

                          1       1    2s                7.741240      -0.372569
                                                         2.739304      -0.219396
                                                         1.077565       0.278149
                                                         0.425476       0.232020
                                                         0.142415       0.034612

                          1       2    3s                7.741240       0.271946
                                                         2.739304       0.236866
                                                         1.077565      -0.248170
                                                         0.425476      -0.061031
                                                         0.142415       0.200154

                          1       3    4s                7.741240      -1.413950
                                                         2.739304      -2.318830
                                                         1.077565       1.978599
                                                         0.425476      -0.833623
                                                         0.142415       0.105972

                          1       4    3px               7.741240      -1.168229
                                                         2.739304      -0.942518
                                                         1.077565      -0.541668
                                                         0.425476      -0.212751
                                                         0.142415      -0.025014
                          1       4    3py               7.741240      -1.168229
                                                         2.739304      -0.942518
                                                         1.077565      -0.541668
                                                         0.425476      -0.212751
                                                         0.142415      -0.025014
                          1       4    3pz               7.741240      -1.168229
                                                         2.739304      -0.942518
                                                         1.077565      -0.541668
                                                         0.425476      -0.212751
                                                         0.142415      -0.025014

                          1       5    4px               7.741240       0.928701
                                                         2.739304       0.844788
                                                         1.077565       0.526172
                                                         0.425476       0.069589
                                                         0.142415      -0.132325
                          1       5    4py               7.741240       0.928701
                                                         2.739304       0.844788
                                                         1.077565       0.526172
                                                         0.425476       0.069589
                                                         0.142415      -0.132325
                          1       5    4pz               7.741240       0.928701
                                                         2.739304       0.844788
                                                         1.077565       0.526172
                                                         0.425476       0.069589
                                                         0.142415      -0.132325

                          1       6    5px               7.741240       1.578027
                                                         2.739304       2.303105
                                                         1.077565       1.543896
                                                         0.425476      -0.542746
                                                         0.142415       0.030053
                          1       6    5py               7.741240       1.578027
                                                         2.739304       2.303105
                                                         1.077565       1.543896
                                                         0.425476      -0.542746
                                                         0.142415       0.030053
                          1       6    5pz               7.741240       1.578027
                                                         2.739304       2.303105
                                                         1.077565       1.543896
                                                         0.425476      -0.542746
                                                         0.142415       0.030053

                          1       7    4dx2              7.741240      -0.128620
                                                         2.739304       0.958133
                                                         1.077565       0.733739
                                                         0.425476       0.247613
                                                         0.142415      -0.003923
                          1       7    4dxy              7.741240      -0.222777
                                                         2.739304       1.659536
                                                         1.077565       1.270873
                                                         0.425476       0.428878
                                                         0.142415      -0.006794
                          1       7    4dxz              7.741240      -0.222777
                                                         2.739304       1.659536
                                                         1.077565       1.270873
                                                         0.425476       0.428878
                                                         0.142415      -0.006794
                          1       7    4dy2              7.741240      -0.128620
                                                         2.739304       0.958133
                                                         1.077565       0.733739
                                                         0.425476       0.247613
                                                         0.142415      -0.003923
                          1       7    4dyz              7.741240      -0.222777
                                                         2.739304       1.659536
                                                         1.077565       1.270873
                                                         0.425476       0.428878
                                                         0.142415      -0.006794
                          1       7    4dz2              7.741240      -0.128620
                                                         2.739304       0.958133
                                                         1.077565       0.733739
                                                         0.425476       0.247613
                                                         0.142415      -0.003923

       Atomic covalent radius [Angstrom]:                                  0.750

       Atomic van der Waals radius [Angstrom]:                             1.550

     GTH Potential information for                                   GTH-SCAN-q5

       Description:                       Goedecker-Teter-Hutter pseudopotential
                                           Goedecker et al., PRB 54, 1703 (1996)
                                          Hartwigsen et al., PRB 58, 3641 (1998)
                                                      Krack, TCA 114, 145 (2005)

       Gaussian exponent of the core charge distribution:               6.165682
       Electronic configuration (s p d ...):                       2   3   0   0

       Parameters of the local part of the GTH pseudopotential:

                          rloc        C1          C2          C3          C4
                        0.284770  -12.418435    1.850749

       Parameters of the non-local part of the GTH pseudopotential:

                   l      r(l)      h(i,j,l)

                   0    0.256275   13.645095

  5. Atomic kind: P                                     Number of atoms:       1

     Orbital Basis Set                                   TZVP-MOLOPT-SCAN-GTH-q5

       Number of orbital shell sets:                                           1
       Number of orbital shells:                                               7
       Number of primitive Cartesian functions:                                4
       Number of Cartesian basis functions:                                   18
       Number of spherical basis functions:                                   17
       Norm type:                                                              2

       Normalised Cartesian orbitals:

                        Set   Shell   Orbital            Exponent    Coefficient

                          1       1    2s                1.517429       0.321659
                                                         0.578536      -0.113829
                                                         0.222216      -0.177615
                                                         0.079604      -0.023186

                          1       2    3s                1.517429       0.359505
                                                         0.578536      -0.203684
                                                         0.222216      -0.005187
                                                         0.079604       0.119482

                          1       3    4s                1.517429      -1.102423
                                                         0.578536       0.245456
                                                         0.222216      -0.185548
                                                         0.079604       0.059485

                          1       4    3px               1.517429       0.178308
                                                         0.578536      -0.255138
                                                         0.222216      -0.121052
                                                         0.079604      -0.015353
                          1       4    3py               1.517429       0.178308
                                                         0.578536      -0.255138
                                                         0.222216      -0.121052
                                                         0.079604      -0.015353
                          1       4    3pz               1.517429       0.178308
                                                         0.578536      -0.255138
                                                         0.222216      -0.121052
                                                         0.079604      -0.015353

                          1       5    4px               1.517429       0.472381
                                                         0.578536      -0.590485
                                                         0.222216       0.019612
                                                         0.079604       0.060494
                          1       5    4py               1.517429       0.472381
                                                         0.578536      -0.590485
                                                         0.222216       0.019612
                                                         0.079604       0.060494
                          1       5    4pz               1.517429       0.472381
                                                         0.578536      -0.590485
                                                         0.222216       0.019612
                                                         0.079604       0.060494

                          1       6    5px               1.517429      -2.734769
                                                         0.578536       0.561380
                                                         0.222216      -0.236754
                                                         0.079604       0.057839
                          1       6    5py               1.517429      -2.734769
                                                         0.578536       0.561380
                                                         0.222216      -0.236754
                                                         0.079604       0.057839
                          1       6    5pz               1.517429      -2.734769
                                                         0.578536       0.561380
                                                         0.222216      -0.236754
                                                         0.079604       0.057839

                          1       7    4dx2              1.517429       0.610047
                                                         0.578536       0.346080
                                                         0.222216       0.050920
                                                         0.079604      -0.000173
                          1       7    4dxy              1.517429       1.056633
                                                         0.578536       0.599428
                                                         0.222216       0.088195
                                                         0.079604      -0.000300
                          1       7    4dxz              1.517429       1.056633
                                                         0.578536       0.599428
                                                         0.222216       0.088195
                                                         0.079604      -0.000300
                          1       7    4dy2              1.517429       0.610047
                                                         0.578536       0.346080
                                                         0.222216       0.050920
                                                         0.079604      -0.000173
                          1       7    4dyz              1.517429       1.056633
                                                         0.578536       0.599428
                                                         0.222216       0.088195
                                                         0.079604      -0.000300
                          1       7    4dz2              1.517429       0.610047
                                                         0.578536       0.346080
                                                         0.222216       0.050920
                                                         0.079604      -0.000173

       Atomic covalent radius [Angstrom]:                                  1.060

       Atomic van der Waals radius [Angstrom]:                             1.800

     GTH Potential information for                                   GTH-SCAN-q5

       Description:                       Goedecker-Teter-Hutter pseudopotential
                                           Goedecker et al., PRB 54, 1703 (1996)
                                          Hartwigsen et al., PRB 58, 3641 (1998)
                                                      Krack, TCA 114, 145 (2005)

       Gaussian exponent of the core charge distribution:               2.680198
       Electronic configuration (s p d ...):                       2   3   0   0

       Parameters of the local part of the GTH pseudopotential:

                          rloc        C1          C2          C3          C4
                        0.431918   -5.574965

       Parameters of the non-local part of the GTH pseudopotential:

                   l      r(l)      h(i,j,l)

                   0    0.395830   10.974303   -3.470359
                                   -3.470359    4.520844
                   1    0.446778    3.055634


 MOLECULE KIND INFORMATION


 All atoms are their own molecule, skipping detailed information


 TOTAL NUMBERS AND MAXIMUM NUMBERS

  Total number of            - Atomic kinds:                                   5
                             - Atoms:                                         59
                             - Shell sets:                                    59
                             - Shells:                                       347
                             - Primitive Cartesian functions:                294
                             - Cartesian basis functions:                    798
                             - Spherical basis functions:                    761

  Maximum angular momentum of- Orbital basis functions:                        2
                             - Local part of the GTH pseudopotential:          2
                             - Non-local part of the GTH pseudopotential:      2


 MODULE QUICKSTEP: ATOMIC COORDINATES IN ANGSTROM

   Atom Kind Element         X             Y             Z       Z(eff)     Mass
      1    1 H     1     18.366970     16.808095     16.726830   1.0000   1.0079
      2    2 O     8     19.049820     17.198245     17.295090   6.0000  15.9994
      3    3 C     6     19.563880     16.161435     18.144690   4.0000  12.0107
      4    1 H     1     19.991020     15.345595     17.547540   1.0000   1.0079
      5    1 H     1     18.776100     15.752375     18.791790   1.0000   1.0079
      6    3 C     6     20.626350     16.755425     19.040680   4.0000  12.0107
      7    1 H     1     21.017840     15.959025     19.687390   1.0000   1.0079
      8    2 O     8     21.717330     17.304085     18.256650   6.0000  15.9994
      9    3 C     6     22.273920     18.431255     18.910080   4.0000  12.0107
     10    1 H     1     23.336260     18.282535     19.108850   1.0000   1.0079
     11    4 N     7     22.166880     19.608315     18.000640   5.0000  14.0067
     12    3 C     6     21.256050     19.655385     16.973430   4.0000  12.0107
     13    1 H     1     20.643920     18.765215     16.868130   1.0000   1.0079
     14    3 C     6     21.140690     20.733185     16.158050   4.0000  12.0107
     15    1 H     1     20.408250     20.749795     15.362770   1.0000   1.0079
     16    3 C     6     21.983870     21.884815     16.355350   4.0000  12.0107
     17    2 O     8     21.994720     22.920575     15.680190   6.0000  15.9994
     18    4 N     7     22.851090     21.764115     17.454880   5.0000  14.0067
     19    1 H     1     23.451640     22.560255     17.654270   1.0000   1.0079
     20    3 C     6     22.988350     20.689275     18.306030   4.0000  12.0107
     21    2 O     8     23.764720     20.678665     19.261860   6.0000  15.9994
     22    3 C     6     20.165650     17.921775     19.912870   4.0000  12.0107
     23    1 H     1     19.467330     18.559165     19.362230   1.0000   1.0079
     24    3 C     6     21.482760     18.651725     20.211070   4.0000  12.0107
     25    1 H     1     21.350060     19.717615     20.425230   1.0000   1.0079
     26    2 O     8     22.173880     18.003025     21.278270   6.0000  15.9994
     27    1 H     1     21.477480     17.638525     21.860370   1.0000   1.0079
     28    2 O     8     19.555370     17.441335     21.117700   6.0000  15.9994
     29    5 P    15     18.098000     18.096095     21.550730   5.0000  30.9738
     30    2 O     8     17.718010     17.351215     22.793850   6.0000  15.9994
     31    2 O     8     17.194740     18.207575     20.362780   6.0000  15.9994
     32    2 O     8     18.502120     19.636385     21.897530   6.0000  15.9994
     33    3 C     6     19.318890     20.005615     23.024500   4.0000  12.0107
     34    1 H     1     20.338050     20.208395     22.681440   1.0000   1.0079
     35    1 H     1     19.327940     19.205075     23.772290   1.0000   1.0079
     36    3 C     6     18.685860     21.258165     23.604320   4.0000  12.0107
     37    1 H     1     19.233900     21.570295     24.498020   1.0000   1.0079
     38    2 O     8     18.756460     22.359475     22.656640   6.0000  15.9994
     39    3 C     6     17.489880     22.567995     22.032790   4.0000  12.0107
     40    1 H     1     17.178450     23.593585     22.240090   1.0000   1.0079
     41    4 N     7     17.637340     22.517795     20.558880   5.0000  14.0067
     42    3 C     6     17.385900     21.403095     19.791360   4.0000  12.0107
     43    1 H     1     17.044730     20.518815     20.311820   1.0000   1.0079
     44    3 C     6     17.570260     21.371755     18.448220   4.0000  12.0107
     45    1 H     1     17.353900     20.471325     17.889010   1.0000   1.0079
     46    3 C     6     18.057220     22.534115     17.754100   4.0000  12.0107
     47    2 O     8     18.241020     22.655915     16.538960   6.0000  15.9994
     48    4 N     7     18.356480     23.604155     18.615100   5.0000  14.0067
     49    1 H     1     18.732190     24.445545     18.185320   1.0000   1.0079
     50    3 C     6     18.194790     23.666315     19.982480   4.0000  12.0107
     51    2 O     8     18.517570     24.654405     20.639270   6.0000  15.9994
     52    3 C     6     17.201530     21.066895     23.922430   4.0000  12.0107
     53    1 H     1     16.960750     20.018775     24.109500   1.0000   1.0079
     54    3 C     6     16.470660     21.588635     22.655300   4.0000  12.0107
     55    1 H     1     16.248710     20.749985     21.998580   1.0000   1.0079
     56    2 O     8     15.235280     22.219675     22.960820   6.0000  15.9994
     57    1 H     1     15.361680     22.606145     23.852870   1.0000   1.0079
     58    2 O     8     16.833310     21.867525     25.060490   6.0000  15.9994
     59    1 H     1     16.269030     21.328805     25.637230   1.0000   1.0079



 SCF PARAMETERS         Density guess:                                    ATOMIC
                        --------------------------------------------------------
                        max_scf:                                             100
                        max_scf_history:                                       0
                        max_diis:                                              4
                        --------------------------------------------------------
                        eps_scf:                                        1.00E-05
                        eps_scf_history:                                0.00E+00
                        eps_diis:                                       1.00E-01
                        eps_eigval:                                     1.00E-05
                        --------------------------------------------------------
                        level_shift [a.u.]:                             0.000000
                        --------------------------------------------------------
                        Mixing method:                           DIRECT_P_MIXING
                        --------------------------------------------------------
                        No outer SCF

 PW_GRID| Information for grid number                                          1
 PW_GRID| Grid distributed over                                    16 processors
 PW_GRID| Real space group dimensions                                    16    1
 PW_GRID| the grid is blocked:                                                NO
 PW_GRID| Cutoff [a.u.]                                                    500.0
 PW_GRID| spherical cutoff:                                                   NO
 PW_GRID|   Bounds   1           -375     374                Points:         750
 PW_GRID|   Bounds   2           -384     383                Points:         768
 PW_GRID|   Bounds   3           -400     399                Points:         800
 PW_GRID| Volume element (a.u.^3)  0.9367E-03     Volume (a.u.^3)    431623.4799
 PW_GRID| Grid span                                                    FULLSPACE
 PW_GRID|   Distribution                         Average         Max         Min
 PW_GRID|   G-Vectors                         28800000.0    28800000    28800000
 PW_GRID|   G-Rays                               38400.0       38400       38400
 PW_GRID|   Real Space Points                 28800000.0    28876800    28262400

 PW_GRID| Information for grid number                                          2
 PW_GRID| Number of the reference grid                                         1
 PW_GRID| Grid distributed over                                    16 processors
 PW_GRID| Real space group dimensions                                    16    1
 PW_GRID| the grid is blocked:                                                NO
 PW_GRID| Cutoff [a.u.]                                                    166.7
 PW_GRID| spherical cutoff:                                                   NO
 PW_GRID|   Bounds   1           -216     215                Points:         432
 PW_GRID|   Bounds   2           -225     224                Points:         450
 PW_GRID|   Bounds   3           -240     239                Points:         480
 PW_GRID| Volume element (a.u.^3)  0.4626E-02     Volume (a.u.^3)    431623.4799
 PW_GRID| Grid span                                                    FULLSPACE
 PW_GRID|   Distribution                         Average         Max         Min
 PW_GRID|   G-Vectors                          5832000.0     5832864     5830704
 PW_GRID|   G-Rays                               13500.0       13502       13497
 PW_GRID|   Real Space Points                  5832000.0     5832000     5832000

 PW_GRID| Information for grid number                                          3
 PW_GRID| Number of the reference grid                                         1
 PW_GRID| Grid distributed over                                    16 processors
 PW_GRID| Real space group dimensions                                    16    1
 PW_GRID| the grid is blocked:                                                NO
 PW_GRID| Cutoff [a.u.]                                                     55.6
 PW_GRID| spherical cutoff:                                                   NO
 PW_GRID|   Bounds   1           -128     127                Points:         256
 PW_GRID|   Bounds   2           -128     127                Points:         256
 PW_GRID|   Bounds   3           -135     134                Points:         270
 PW_GRID| Volume element (a.u.^3)  0.2439E-01     Volume (a.u.^3)    431623.4799
 PW_GRID| Grid span                                                    FULLSPACE
 PW_GRID|   Distribution                         Average         Max         Min
 PW_GRID|   G-Vectors                          1105920.0     1106176     1105664
 PW_GRID|   G-Rays                                4320.0        4321        4319
 PW_GRID|   Real Space Points                  1105920.0     1105920     1105920

 PW_GRID| Information for grid number                                          4
 PW_GRID| Number of the reference grid                                         1
 PW_GRID| Grid distributed over                                    16 processors
 PW_GRID| Real space group dimensions                                    16    1
 PW_GRID| the grid is blocked:                                                NO
 PW_GRID| Cutoff [a.u.]                                                     18.5
 PW_GRID| spherical cutoff:                                                   NO
 PW_GRID|   Bounds   1            -72      71                Points:         144
 PW_GRID|   Bounds   2            -75      74                Points:         150
 PW_GRID|   Bounds   3            -80      79                Points:         160
 PW_GRID| Volume element (a.u.^3)  0.1249         Volume (a.u.^3)    431623.4799
 PW_GRID| Grid span                                                    FULLSPACE
 PW_GRID|   Distribution                         Average         Max         Min
 PW_GRID|   G-Vectors                           216000.0      216432      215280
 PW_GRID|   G-Rays                                1500.0        1503        1495
 PW_GRID|   Real Space Points                   216000.0      216000      216000

 POISSON| Solver                                                        ANALYTIC
 POISSON| Periodicity                                                       NONE

 RS_GRID| Information for grid number                                          1
 RS_GRID|   Bounds   1           -375     374                Points:         750
 RS_GRID|   Bounds   2           -384     383                Points:         768
 RS_GRID|   Bounds   3           -400     399                Points:         800
 RS_GRID| Real space distribution over                                  4 groups
 RS_GRID| Real space distribution along direction                              2
 RS_GRID| Border size                                                         34
 RS_GRID| Real space distribution over                                  4 groups
 RS_GRID| Real space distribution along direction                              3
 RS_GRID| Border size                                                         34
 RS_GRID|   Distribution                         Average         Max         Min
 RS_GRID|   Planes                                 260.0         260         260
 RS_GRID|   Distribution                         Average         Max         Min
 RS_GRID|   Planes                                 268.0         268         268

 RS_GRID| Information for grid number                                          2
 RS_GRID|   Bounds   1           -216     215                Points:         432
 RS_GRID|   Bounds   2           -225     224                Points:         450
 RS_GRID|   Bounds   3           -240     239                Points:         480
 RS_GRID| Real space distribution over                                  4 groups
 RS_GRID| Real space distribution along direction                              2
 RS_GRID| Border size                                                         27
 RS_GRID| Real space distribution over                                  4 groups
 RS_GRID| Real space distribution along direction                              3
 RS_GRID| Border size                                                         27
 RS_GRID|   Distribution                         Average         Max         Min
 RS_GRID|   Planes                                 166.5         167         166
 RS_GRID|   Distribution                         Average         Max         Min
 RS_GRID|   Planes                                 174.0         174         174

 RS_GRID| Information for grid number                                          3
 RS_GRID|   Bounds   1           -128     127                Points:         256
 RS_GRID|   Bounds   2           -128     127                Points:         256
 RS_GRID|   Bounds   3           -135     134                Points:         270
 RS_GRID| Real space fully replicated
 RS_GRID| Group size                                                           1

 RS_GRID| Information for grid number                                          4
 RS_GRID|   Bounds   1            -72      71                Points:         144
 RS_GRID|   Bounds   2            -75      74                Points:         150
 RS_GRID|   Bounds   3            -80      79                Points:         160
 RS_GRID| Real space fully replicated
 RS_GRID| Group size                                                           1

 Extrapolation method: initial_guess

 Atomic guess: The first density matrix is obtained in terms of atomic orbitals
               and electronic configurations assigned to each atomic kind

 Guess for atomic kind: H

 Electronic structure
    Total number of core electrons                                          0.00
    Total number of valence electrons                                       1.00
    Total number of electrons                                               1.00
    Multiplicity                                                   not specified
    S      1.00


 *******************************************************************************
                  Iteration          Convergence                     Energy [au]
 *******************************************************************************
                          1        0.364523E-02                  -0.422484553466
                          2        0.146100E-03                  -0.422490428911
                          3        0.266755E-04                  -0.422490480125
                          4        0.362968E-08                  -0.422490480723

 Energy components [Hartree]           Total Energy ::           -0.422490480723
                                        Band Energy ::           -0.192735382727
                                     Kinetic Energy ::            0.477952444388
                                   Potential Energy ::           -0.900442925111
                                      Virial (-V/T) ::            1.883959242566
                                        Core Energy ::           -0.479166166213
                                          XC Energy ::           -0.248560768168
                                     Coulomb Energy ::            0.305236453657
                       Total Pseudopotential Energy ::           -0.975131101124
                       Local Pseudopotential Energy ::           -0.975131101124
                    Nonlocal Pseudopotential Energy ::            0.000000000000
                                        Confinement ::            0.180124905236

 Orbital energies  State     L     Occupation   Energy[a.u.]          Energy[eV]

                       1     0          1.000      -0.192735           -5.244596


 Total Electron Density at R=0:                                         0.249202

 Guess for atomic kind: O

 Electronic structure
    Total number of core electrons                                          2.00
    Total number of valence electrons                                       6.00
    Total number of electrons                                               8.00
    Multiplicity                                                   not specified
    S   [  2.00] 2.00
    P      4.00


 *******************************************************************************
                  Iteration          Convergence                     Energy [au]
 *******************************************************************************
                          1        0.767843                     -15.548688912140
                          2        0.707350                     -15.552891087148
                          3        0.233352E-01                 -15.638471141341
                          4        0.140601E-02                 -15.638569711398
                          5        0.207920E-04                 -15.638570020034
                          6        0.225984E-06                 -15.638570020103

 Energy components [Hartree]           Total Energy ::          -15.638570020103
                                        Band Energy ::           -2.987115069665
                                     Kinetic Energy ::           11.758429295155
                                   Potential Energy ::          -27.396999315258
                                      Virial (-V/T) ::            2.329988013497
                                        Core Energy ::          -26.117692585696
                                          XC Energy ::           -3.153357461230
                                     Coulomb Energy ::           13.632480026823
                       Total Pseudopotential Energy ::          -37.911237752663
                       Local Pseudopotential Energy ::          -39.187422590466
                    Nonlocal Pseudopotential Energy ::            1.276184837802
                                        Confinement ::            0.351158718120

 Orbital energies  State     L     Occupation   Energy[a.u.]          Energy[eV]

                       1     0          2.000      -0.854976          -23.265087

                       1     1          4.000      -0.319291           -8.688340


 Total Electron Density at R=0:                                         0.000001

 Guess for atomic kind: C

 Electronic structure
    Total number of core electrons                                          2.00
    Total number of valence electrons                                       4.00
    Total number of electrons                                               6.00
    Multiplicity                                                   not specified
    S   [  2.00] 2.00
    P      2.00


 *******************************************************************************
                  Iteration          Convergence                     Energy [au]
 *******************************************************************************
                          1        0.124377                      -5.269415449983
                          2        0.880091E-01                  -5.274432015385
                          3        0.424095E-03                  -5.279419090830
                          4        0.118108E-03                  -5.279419164687
                          5        0.144057E-06                  -5.279419172500

 Energy components [Hartree]           Total Energy ::           -5.279419172500
                                        Band Energy ::           -1.313739125276
                                     Kinetic Energy ::            3.405940495234
                                   Potential Energy ::           -8.685359667734
                                      Virial (-V/T) ::            2.550062069460
                                        Core Energy ::           -8.290068838701
                                          XC Energy ::           -1.377173731606
                                     Coulomb Energy ::            4.387823397806
                       Total Pseudopotential Energy ::          -11.730281123094
                       Local Pseudopotential Energy ::          -12.376528803709
                    Nonlocal Pseudopotential Energy ::            0.646247680614
                                        Confinement ::            0.342717891594

 Orbital energies  State     L     Occupation   Energy[a.u.]          Energy[eV]

                       1     0          2.000      -0.480601          -13.077809

                       1     1          2.000      -0.176269           -4.796521


 Total Electron Density at R=0:                                         0.000000

 Guess for atomic kind: N

 Electronic structure
    Total number of core electrons                                          2.00
    Total number of valence electrons                                       5.00
    Total number of electrons                                               7.00
    Multiplicity                                                   not specified
    S   [  2.00] 2.00
    P      3.00


 *******************************************************************************
                  Iteration          Convergence                     Energy [au]
 *******************************************************************************
                          1        0.346146                      -9.510631084718
                          2        0.293961                      -9.519323476596
                          3        0.462882E-02                  -9.543943533173
                          4        0.376937E-03                  -9.543951832803
                          5        0.269242E-05                  -9.543951869815
                          6        0.125879E-05                  -9.543951869817
                          7        0.339213E-08                  -9.543951869817

 Energy components [Hartree]           Total Energy ::           -9.543951869817
                                        Band Energy ::           -2.045283632630
                                     Kinetic Energy ::            6.768365898222
                                   Potential Energy ::          -16.312317768040
                                      Virial (-V/T) ::            2.410082139963
                                        Core Energy ::          -15.546390569991
                                          XC Energy ::           -2.165368606550
                                     Coulomb Energy ::            8.167807306724
                       Total Pseudopotential Energy ::          -22.351839014438
                       Local Pseudopotential Energy ::          -23.300988197283
                    Nonlocal Pseudopotential Energy ::            0.949149182846
                                        Confinement ::            0.370825462242

 Orbital energies  State     L     Occupation   Energy[a.u.]          Energy[eV]

                       1     0          2.000      -0.656585          -17.866573

                       1     1          3.000      -0.244038           -6.640617


 Total Electron Density at R=0:                                         0.000014

 Guess for atomic kind: P

 Electronic structure
    Total number of core electrons                                         10.00
    Total number of valence electrons                                       5.00
    Total number of electrons                                              15.00
    Multiplicity                                                   not specified
    S   [  2.00  2.00] 2.00
    P   [  6.00] 3.00


 *******************************************************************************
                  Iteration          Convergence                     Energy [au]
 *******************************************************************************
                          1        0.628857E-01                  -6.286788481624
                          2        0.352344E-01                  -6.288166288969
                          3        0.747868E-03                  -6.288881759910
                          4        0.612687E-06                  -6.288882066609

 Energy components [Hartree]           Total Energy ::           -6.288882066609
                                        Band Energy ::           -1.497693252013
                                     Kinetic Energy ::            2.380855553462
                                   Potential Energy ::           -8.669737620071
                                      Virial (-V/T) ::            3.641437888773
                                        Core Energy ::          -10.065619171862
                                          XC Energy ::           -1.458769268370
                                     Coulomb Energy ::            5.235506373622
                       Total Pseudopotential Energy ::          -12.506808970943
                       Local Pseudopotential Energy ::          -13.844888599948
                    Nonlocal Pseudopotential Energy ::            1.338079629005
                                        Confinement ::            0.603342456196

 Orbital energies  State     L     Occupation   Energy[a.u.]          Energy[eV]

                       1     0          2.000      -0.483501          -13.156723

                       1     1          3.000      -0.176897           -4.813620


 Total Electron Density at R=0:                                         0.000210
 Re-scaling the density matrix to get the right number of electrons
                  # Electrons              Trace(P)               Scaling factor
                          204               203.000                        1.005

 Number of electrons:                                                        204
 Number of occupied orbitals:                                                102
 Number of molecular orbitals:                                               102

 Number of orbital functions:                                                761
 Number of independent orbital functions:                                    761


 SCF WAVEFUNCTION OPTIMIZATION

  Step     Update method      Time    Convergence         Total energy    Change
  ------------------------------------------------------------------------------
     1 P_Mix/Diag. 0.40E+00   98.0     1.30613002      -386.2148213072 -3.86E+02
     2 P_Mix/Diag. 0.40E+00  114.2     0.66461395      -386.0956576834  1.19E-01
     3 P_Mix/Diag. 0.40E+00  114.3     0.40363848      -386.0256890317  7.00E-02
     4 P_Mix/Diag. 0.40E+00  113.0     0.25269524      -385.9919077660  3.38E-02
     5 P_Mix/Diag. 0.40E+00  111.5     0.16594929      -385.9752644465  1.66E-02
     6 P_Mix/Diag. 0.40E+00  112.9     0.10193890      -385.9671417304  8.12E-03
     7 P_Mix/Diag. 0.40E+00  111.2     0.06462159      -385.9631615047  3.98E-03
     8 DIIS/Diag.  0.83E-02  109.3     0.04122247      -385.9611832720  1.98E-03
     9 DIIS/Diag.  0.15E-01  112.7     0.00031778      -385.9590542281  2.13E-03
    10 DIIS/Diag.  0.15E-01  109.0     0.00441823      -385.9590525642  1.66E-06
    11 DIIS/Diag.  0.14E-01  111.2     0.00692649      -385.9589457320  1.07E-04
    12 DIIS/Diag.  0.13E-01  113.3     0.00500851      -385.9591199721 -1.74E-04
    13 DIIS/Diag.  0.11E-01  112.7     0.00433788      -385.9591759720 -5.60E-05
    14 DIIS/Diag.  0.77E-02  110.5     0.00277411      -385.9592475843 -7.16E-05
    15 DIIS/Diag.  0.67E-02  112.6     0.00097706      -385.9592674736 -1.99E-05
    16 DIIS/Diag.  0.78E-02  110.4     0.00070681      -385.9592703545 -2.88E-06
    17 DIIS/Diag.  0.43E-02  109.8     0.00111574      -385.9592726799 -2.33E-06
    18 DIIS/Diag.  0.14E-02  108.9     0.00121324      -385.9592717660  9.14E-07
    19 DIIS/Diag.  0.89E-03  112.2     0.00032238      -385.9592744811 -2.72E-06
    20 DIIS/Diag.  0.38E-03  112.5     0.00011897      -385.9592748952 -4.14E-07
    21 DIIS/Diag.  0.38E-03  115.5     0.00010312      -385.9592748863  8.84E-09
    22 DIIS/Diag.  0.20E-03  112.0     0.00004683      -385.9592749521 -6.58E-08
    23 DIIS/Diag.  0.18E-03  114.3     0.00010224      -385.9592749291  2.30E-08
    24 DIIS/Diag.  0.16E-03  115.9     0.00007067      -385.9592749336 -4.50E-09
    25 DIIS/Diag.  0.39E-04  117.2     0.00001559      -385.9592749392 -5.63E-09
    26 DIIS/Diag.  0.43E-04  114.3     0.00000991      -385.9592749286  1.06E-08

  *** SCF run converged in    26 steps ***


  Electronic density on regular grids:       -203.9999999993        0.0000000007
  Core density on regular grids:              202.9999999893       -0.0000000107
  Total charge density on r-space grids:       -1.0000000099
  Total charge density g-space grids:          -1.0000000099

  Overlap energy of the core charge distribution:               0.00000626065866
  Self energy of the core charge distribution:               -980.40833007087474
  Core Hamiltonian energy:                                    286.31125932113457
  Hartree energy:                                             408.85923433566415
  Exchange-correlation energy:                               -100.72144477520554

  Total energy:                                              -385.95927492862290

 MO| EIGENVALUES AND OCCUPATION NUMBERS
 MO|
 MO|  Index      Eigenvalue [a.u.]        Eigenvalue [eV]             Occupation
 MO|      1              -0.969803             -26.389682               2.000000
 MO|      2              -0.960058             -26.124495               2.000000
 MO|      3              -0.955119             -25.990112               2.000000
 MO|      4              -0.950864             -25.874314               2.000000
 MO|      5              -0.939033             -25.552389               2.000000
 MO|      6              -0.928514             -25.266146               2.000000
 MO|      7              -0.922398             -25.099720               2.000000
 MO|      8              -0.920363             -25.044357               2.000000
 MO|      9              -0.915347             -24.907869               2.000000
 MO|     10              -0.913934             -24.869411               2.000000
 MO|     11              -0.912451             -24.829053               2.000000
 MO|     12              -0.893112             -24.302803               2.000000
 MO|     13              -0.860379             -23.412111               2.000000
 MO|     14              -0.850268             -23.136969               2.000000
 MO|     15              -0.814236             -22.156497               2.000000
 MO|     16              -0.813215             -22.128708               2.000000
 MO|     17              -0.804690             -21.896720               2.000000
 MO|     18              -0.777377             -21.153496               2.000000
 MO|     19              -0.682218             -18.564087               2.000000
 MO|     20              -0.673181             -18.318199               2.000000
 MO|     21              -0.667152             -18.154126               2.000000
 MO|     22              -0.664692             -18.087177               2.000000
 MO|     23              -0.643780             -17.518133               2.000000
 MO|     24              -0.638429             -17.372529               2.000000
 MO|     25              -0.579902             -15.779923               2.000000
 MO|     26              -0.575898             -15.670977               2.000000
 MO|     27              -0.571629             -15.554814               2.000000
 MO|     28              -0.560618             -15.255196               2.000000
 MO|     29              -0.531864             -14.472745               2.000000
 MO|     30              -0.527582             -14.356235               2.000000
 MO|     31              -0.502951             -13.685980               2.000000
 MO|     32              -0.502542             -13.674867               2.000000
 MO|     33              -0.488145             -13.283096               2.000000
 MO|     34              -0.486303             -13.232973               2.000000
 MO|     35              -0.460142             -12.521089               2.000000
 MO|     36              -0.453366             -12.336729               2.000000
 MO|     37              -0.448195             -12.195997               2.000000
 MO|     38              -0.440152             -11.977136               2.000000
 MO|     39              -0.436910             -11.888934               2.000000
 MO|     40              -0.429122             -11.677013               2.000000
 MO|     41              -0.428019             -11.647000               2.000000
 MO|     42              -0.414908             -11.290234               2.000000
 MO|     43              -0.406479             -11.060853               2.000000
 MO|     44              -0.405685             -11.039257               2.000000
 MO|     45              -0.396142             -10.779581               2.000000
 MO|     46              -0.393537             -10.708685               2.000000
 MO|     47              -0.385642             -10.493851               2.000000
 MO|     48              -0.378676             -10.304310               2.000000
 MO|     49              -0.376812             -10.253583               2.000000
 MO|     50              -0.368916             -10.038720               2.000000
 MO|     51              -0.361135              -9.826990               2.000000
 MO|     52              -0.353205              -9.611208               2.000000
 MO|     53              -0.348060              -9.471186               2.000000
 MO|     54              -0.344328              -9.369632               2.000000
 MO|     55              -0.339714              -9.244098               2.000000
 MO|     56              -0.337160              -9.174586               2.000000
 MO|     57              -0.334897              -9.113011               2.000000
 MO|     58              -0.333434              -9.073193               2.000000
 MO|     59              -0.330105              -8.982614               2.000000
 MO|     60              -0.324968              -8.842836               2.000000
 MO|     61              -0.318878              -8.677122               2.000000
 MO|     62              -0.317071              -8.627931               2.000000
 MO|     63              -0.306760              -8.347366               2.000000
 MO|     64              -0.304331              -8.281280               2.000000
 MO|     65              -0.301689              -8.209362               2.000000
 MO|     66              -0.300786              -8.184808               2.000000
 MO|     67              -0.297793              -8.103369               2.000000
 MO|     68              -0.289611              -7.880726               2.000000
 MO|     69              -0.287976              -7.836216               2.000000
 MO|     70              -0.282102              -7.676384               2.000000
 MO|     71              -0.277445              -7.549661               2.000000
 MO|     72              -0.271772              -7.395298               2.000000
 MO|     73              -0.270089              -7.349496               2.000000
 MO|     74              -0.257951              -7.019191               2.000000
 MO|     75              -0.256767              -6.986982               2.000000
 MO|     76              -0.253277              -6.892025               2.000000
 MO|     77              -0.246463              -6.706603               2.000000
 MO|     78              -0.240371              -6.540816               2.000000
 MO|     79              -0.236324              -6.430697               2.000000
 MO|     80              -0.233143              -6.344153               2.000000
 MO|     81              -0.229299              -6.239538               2.000000
 MO|     82              -0.208895              -5.684330               2.000000
 MO|     83              -0.206726              -5.625305               2.000000
 MO|     84              -0.196326              -5.342312               2.000000
 MO|     85              -0.193701              -5.270873               2.000000
 MO|     86              -0.188943              -5.141403               2.000000
 MO|     87              -0.184046              -5.008153               2.000000
 MO|     88              -0.182176              -4.957250               2.000000
 MO|     89              -0.180684              -4.916657               2.000000
 MO|     90              -0.179836              -4.893576               2.000000
 MO|     91              -0.175340              -4.771254               2.000000
 MO|     92              -0.172703              -4.699482               2.000000
 MO|     93              -0.170003              -4.626028               2.000000
 MO|     94              -0.161162              -4.385437               2.000000
 MO|     95              -0.157535              -4.286752               2.000000
 MO|     96              -0.154923              -4.215667               2.000000
 MO|     97              -0.148613              -4.043965               2.000000
 MO|     98              -0.141628              -3.853887               2.000000
 MO|     99              -0.138177              -3.759993               2.000000
 MO|    100              -0.133513              -3.633079               2.000000
 MO|    101              -0.123416              -3.358307               2.000000
 MO|    102              -0.108939              -2.964373               2.000000
 MO| Sum:                                                             204.000000
 MO| E(Fermi):           -0.108939 a.u.         -2.964373 eV


 !-----------------------------------------------------------------------------!
                     Mulliken Population Analysis

 #  Atom  Element  Kind  Atomic population                           Net charge
       1     H        1          0.772801                              0.227199
       2     O        2          6.491314                             -0.491314
       3     C        3          3.681256                              0.318744
       4     H        1          1.010684                             -0.010684
       5     H        1          0.980828                              0.019172
       6     C        3          3.787594                              0.212406
       7     H        1          0.982308                              0.017692
       8     O        2          6.513749                             -0.513749
       9     C        3          3.564585                              0.435415
      10     H        1          0.961066                              0.038934
      11     N        4          5.233494                             -0.233494
      12     C        3          3.782165                              0.217835
      13     H        1          0.974635                              0.025365
      14     C        3          4.142053                             -0.142053
      15     H        1          0.995094                              0.004906
      16     C        3          3.589378                              0.410622
      17     O        2          6.491989                             -0.491989
      18     N        4          5.220309                             -0.220309
      19     H        1          0.848440                              0.151560
      20     C        3          3.515450                              0.484550
      21     O        2          6.498406                             -0.498406
      22     C        3          3.804537                              0.195463
      23     H        1          0.935466                              0.064534
      24     C        3          3.759659                              0.240341
      25     H        1          0.974151                              0.025849
      26     O        2          6.523107                             -0.523107
      27     H        1          0.740144                              0.259856
      28     O        2          6.644260                             -0.644260
      29     P        5          3.618317                              1.381683
      30     O        2          6.746805                             -0.746805
      31     O        2          6.783256                             -0.783256
      32     O        2          6.646368                             -0.646368
      33     C        3          3.674290                              0.325710
      34     H        1          0.993492                              0.006508
      35     H        1          0.985899                              0.014101
      36     C        3          3.825138                              0.174862
      37     H        1          0.985695                              0.014305
      38     O        2          6.473029                             -0.473029
      39     C        3          3.557489                              0.442511
      40     H        1          0.964330                              0.035670
      41     N        4          5.220623                             -0.220623
      42     C        3          3.732916                              0.267084
      43     H        1          0.986424                              0.013576
      44     C        3          4.208965                             -0.208965
      45     H        1          0.988475                              0.011525
      46     C        3          3.571481                              0.428519
      47     O        2          6.493222                             -0.493222
      48     N        4          5.224774                             -0.224774
      49     H        1          0.845290                              0.154710
      50     C        3          3.511507                              0.488493
      51     O        2          6.500993                             -0.500993
      52     C        3          3.796957                              0.203043
      53     H        1          0.961515                              0.038485
      54     C        3          3.744044                              0.255956
      55     H        1          0.969001                              0.030999
      56     O        2          6.518086                             -0.518086
      57     H        1          0.760937                              0.239063
      58     O        2          6.533549                             -0.533549
      59     H        1          0.758210                              0.241790
 # Total charge                            204.000000                 -1.000000

 !-----------------------------------------------------------------------------!

 !-----------------------------------------------------------------------------!
                           Hirshfeld Charges

  #Atom  Element  Kind  Ref Charge     Population                    Net charge
      1       H      1       1.000          0.439                         0.561
      2       O      2       6.000          6.866                        -0.866
      3       C      3       4.000          4.582                        -0.582
      4       H      1       1.000          0.569                         0.431
      5       H      1       1.000          0.558                         0.442
      6       C      3       4.000          4.157                        -0.157
      7       H      1       1.000          0.565                         0.435
      8       O      2       6.000          6.539                        -0.539
      9       C      3       4.000          3.995                         0.005
     10       H      1       1.000          0.552                         0.448
     11       N      4       5.000          5.238                        -0.238
     12       C      3       4.000          4.213                        -0.213
     13       H      1       1.000          0.528                         0.472
     14       C      3       4.000          4.454                        -0.454
     15       H      1       1.000          0.538                         0.462
     16       C      3       4.000          3.597                         0.403
     17       O      2       6.000          6.544                        -0.544
     18       N      4       5.000          5.562                        -0.562
     19       H      1       1.000          0.466                         0.534
     20       C      3       4.000          3.513                         0.487
     21       O      2       6.000          6.575                        -0.575
     22       C      3       4.000          4.098                        -0.098
     23       H      1       1.000          0.548                         0.452
     24       C      3       4.000          4.168                        -0.168
     25       H      1       1.000          0.561                         0.439
     26       O      2       6.000          6.802                        -0.802
     27       H      1       1.000          0.430                         0.570
     28       O      2       6.000          6.504                        -0.504
     29       P      5       5.000          4.429                         0.571
     30       O      2       6.000          6.609                        -0.609
     31       O      2       6.000          6.640                        -0.640
     32       O      2       6.000          6.514                        -0.514
     33       C      3       4.000          4.537                        -0.537
     34       H      1       1.000          0.562                         0.438
     35       H      1       1.000          0.557                         0.443
     36       C      3       4.000          4.154                        -0.154
     37       H      1       1.000          0.562                         0.438
     38       O      2       6.000          6.521                        -0.521
     39       C      3       4.000          3.996                         0.004
     40       H      1       1.000          0.555                         0.445
     41       N      4       5.000          5.226                        -0.226
     42       C      3       4.000          4.196                        -0.196
     43       H      1       1.000          0.530                         0.470
     44       C      3       4.000          4.476                        -0.476
     45       H      1       1.000          0.538                         0.462
     46       C      3       4.000          3.601                         0.399
     47       O      2       6.000          6.552                        -0.552
     48       N      4       5.000          5.563                        -0.563
     49       H      1       1.000          0.466                         0.534
     50       C      3       4.000          3.502                         0.498
     51       O      2       6.000          6.572                        -0.572
     52       C      3       4.000          4.161                        -0.161
     53       H      1       1.000          0.556                         0.444
     54       C      3       4.000          4.125                        -0.125
     55       H      1       1.000          0.556                         0.444
     56       O      2       6.000          6.797                        -0.797
     57       H      1       1.000          0.435                         0.565
     58       O      2       6.000          6.860                        -0.860
     59       H      1       1.000          0.437                         0.563

  Total Charge                                                           -0.949
 !-----------------------------------------------------------------------------!

 ENERGY| Total FORCE_EVAL ( QS ) energy [hartree]           -385.959274928622904

 -------------------------------------------------------------------------------
 -                                                                             -
 -                                DBCSR STATISTICS                             -
 -                                                                             -
 -------------------------------------------------------------------------------
 COUNTER                                    TOTAL       BLAS       SMM       ACC
 flops     6 x     6 x     6              2583360     100.0%      0.0%      0.0%     
 flops    17 x     6 x     6             12284064     100.0%      0.0%      0.0%     
 flops     6 x    17 x     6             12411360     100.0%      0.0%      0.0%     
 flops     6 x     6 x    32             41333760     100.0%      0.0%      0.0%     
 flops    17 x    17 x     6             62306088     100.0%      0.0%      0.0%     
 flops    17 x     6 x    32            196545024     100.0%      0.0%      0.0%     
 flops     6 x    17 x    32            198581760     100.0%      0.0%      0.0%     
 flops    17 x    17 x    32            996897408     100.0%      0.0%      0.0%     
 flops inhomo. stacks                           0       0.0%      0.0%      0.0%
 flops total                         1.522943E+09     100.0%      0.0%      0.0%
 flops max/rank                    103.709112E+06     100.0%      0.0%      0.0%
 matmuls inhomo. stacks                         0       0.0%      0.0%      0.0%
 matmuls total                             176488     100.0%      0.0%      0.0%
 number of processed stacks                  6656     100.0%      0.0%      0.0%
 average stack size                                    26.5       0.0       0.0
 marketing flops                     3.071658E+09
 -------------------------------------------------------------------------------
 # multiplications                             26
 max memory usage/rank              14.395224E+09
 # max total images/rank                        1
 # max 3D layers                                1
 # MPI messages exchanged                    2496
 MPI messages size (bytes):
  total size                        96.872256E+06
  min size                           9.072000E+03
  max size                          49.664000E+03
  average size                      38.811000E+03
 MPI breakdown and total messages size (bytes):
             size <=      128                   0                        0
       128 < size <=     8192                   0                        0
      8192 < size <=    32768                 624                  5698368
     32768 < size <=   131072                1872                 91173888
    131072 < size <=  4194304                   0                        0
   4194304 < size <= 16777216                   0                        0
  16777216 < size                               0                        0
 -------------------------------------------------------------------------------
 -                                                                             -
 -                      DBCSR MESSAGE PASSING PERFORMANCE                      -
 -                                                                             -
 -------------------------------------------------------------------------------
 ROUTINE             CALLS      AVE VOLUME [Bytes]
 MP_Bcast                9                     12.
 MP_Allreduce          165                     12.
 MP_Alltoall           858                 121761.
 MP_ISend              416                  18804.
 MP_IRecv              416                  13760.
 -------------------------------------------------------------------------------

 -------------------------------------------------------------------------------
 -                                                                             -
 -                                GRID STATISTICS                              -
 -                                                                             -
 -------------------------------------------------------------------------------
 LP    KERNEL             BACKEND                              COUNT     PERCENT
 3     collocate ortho    CPU                                  17604      22.59%
 3     integrate ortho    CPU                                  16952      21.75%
 4     collocate ortho    CPU                                  15768      20.23%
 4     integrate ortho    CPU                                  15184      19.48%
 2     collocate ortho    CPU                                   6237       8.00%
 2     integrate ortho    CPU                                   6006       7.71%
 0     collocate general  CPU                                    118       0.15%
 0     integrate general  CPU                                     59       0.08%
 -------------------------------------------------------------------------------

 -------------------------------------------------------------------------------
 -                                                                             -
 -                          OFFLOAD MEMPOOL STATISTICS                         -
 -                                                                             -
 -------------------------------------------------------------------------------
 Memory consumption                Number of allocations  Used [MiB]  Size [MiB]
 Host                                                  6         657    10922212
 -------------------------------------------------------------------------------

 MEMORY| Estimated peak process memory [MiB]                               11097

 -------------------------------------------------------------------------------
 ----                             MULTIGRID INFO                            ----
 -------------------------------------------------------------------------------
 count for grid        1:         474258          cutoff [a.u.]          500.00
 count for grid        2:         445720          cutoff [a.u.]          166.67
 count for grid        3:         414632          cutoff [a.u.]           55.56
 count for grid        4:         192192          cutoff [a.u.]           18.52
 total gridlevel count  :        1526802

 -------------------------------------------------------------------------------
 -                                                                             -
 -                         MESSAGE PASSING PERFORMANCE                         -
 -                                                                             -
 -------------------------------------------------------------------------------

 ROUTINE             CALLS      AVE VOLUME [Bytes]
 MP_Group                4
 MP_Bcast              204                 252255.
 MP_Allreduce          469                 280513.
 MP_Sync                30
 MP_Alltoall           333              666095060.
 MP_SendRecv           810                5287680.
 MP_ISendRecv          780                5287680.
 MP_Wait              3287
 MP_comm_split          26
 MP_ISend             2180               13176644.
 MP_IRecv             2180               13177303.
 -------------------------------------------------------------------------------


 -------------------------------------------------------------------------------
 -                                                                             -
 -                           R E F E R E N C E S                               -
 -                                                                             -
 -------------------------------------------------------------------------------
 
 CP2K version 2026.2, the CP2K developers group (2026).
 CP2K is freely available from https://www.cp2k.org/ .
 
 M. Iannuzzi, J. Wilhelm, F. Stein, A. Bussy, H. Elgabarty, D. Golze, A. Hehn, 
 M. Graml, S. Marek, B. Sertcan Gökmen, C. Schran, H. Forbert, R. Z. 
 Khaliullin, A. Kozhevnikov, M. Taillefumier, R. Meli, V. V. Rybkin, M. Brehm, 
 R. Schade, O. Schütt, J. V. Pototschnig, H. Mirhosseini, A. Knüpfer, D. Marx, 
 M. Krack, J. Hutter, T. D. Kühne.
 J. Phys. Chem. B 130, 1237-1310 (2026).
 The CP2K Program Package Made Simple.
 https://doi.org/10.1021/acs.jpcb.5c05851

 T. D. Kühne, M. Iannuzzi, M. Del Ben, V. V. Rybkin, P. Seewald, F. Stein, T. 
 Laino, R. Z. Khaliullin, O. Schütt, F. Schiffmann, D. Golze, J. Wilhelm, S. 
 Chulkov, M. H. Bani-Hashemian, V. Weber, U. Borstnik, M. Taillefumier, A. S. 
 Jakobovits, A. Lazzaro, H. Pabst, T. Müller, R. Schade, M. Guidon, S. 
 Andermatt, N. Holmberg, G. K. Schenter, A. Hehn, A. Bussy, F. Belleflamme, G. 
 Tabacchi, A. Glöß, M. Lass, I. Bethune, C. J. Mundy, C. Plessl, M. Watkins, 
 J. VandeVondele, M. Krack, J. Hutter.
 J. Chem. Phys. 152, 194103 (2020).
 CP2K: An electronic structure and molecular dynamics software package - 
 Quickstep: Efficient and accurate electronic structure calculations.
 https://doi.org/10.1063/5.0007045

 O. Schuett, P. Messmer, J. Hutter, J. VandeVondele.
 Electronic Structure Calculations on Graphics Processing Units, 173-190 (2016).
 GPU-Accelerated Sparse Matrix-Matrix Multiplication for Linear Scaling Density 
 Functional Theory.
 https://doi.org/10.1002/9781118670712.ch8

 U. Borstnik, J. VandeVondele, V. Weber, J. Hutter.
 Parallel Comput. 40, 47-58 (2014).
 Sparse matrix multiplication: The distributed block-compressed sparse row 
 library.
 https://doi.org/10.1016/j.parco.2014.03.012

 J. VandeVondele, J. Hutter.
 J. Chem. Phys. 127, 114105 (2007).
 Gaussian basis sets for accurate calculations on molecular systems in gas and 
 condensed phases.
 https://doi.org/10.1063/1.2770708

 J. VandeVondele, M. Krack, F. Mohamed, M. Parrinello, T. Chassaing, J. Hutter.
 Comput. Phys. Commun. 167, 103-128 (2005).
 QUICKSTEP: Fast and accurate density functional calculations using a mixed 
 Gaussian and plane waves approach.
 https://doi.org/10.1016/j.cpc.2004.12.014

 M. Krack.
 Theor. Chem. Acc. 114, 145-152 (2005).
 Pseudopotentials for H to Kr optimized for gradient-corrected 
 exchange-correlation functionals.
 https://doi.org/10.1007/s00214-005-0655-y

 M. Frigo, S. G. Johnson.
 Proc. IEEE 93, 216-231 (2005).
 The design and implementation of FFTW3.
 https://doi.org/10.1109/JPROC.2004.840301

 C. Hartwigsen, S. Goedecker, J. Hutter.
 Phys. Rev. B 58, 3641-3662 (1998).
 Relativistic separable dual-space Gaussian pseudopotentials from H to Rn.
 https://doi.org/10.1103/PhysRevB.58.3641

 G. Lippert, J. Hutter, M. Parrinello.
 Mol. Phys. 92, 477-487 (1997).
 A hybrid Gaussian and plane wave density functional scheme.
 https://doi.org/10.1080/002689797170220

 S. Goedecker, M. Teter, J. Hutter.
 Phys. Rev. B 54, 1703-1710 (1996).
 Separable dual-space Gaussian pseudopotentials.
 https://doi.org/10.1103/PhysRevB.54.1703


 -------------------------------------------------------------------------------
 -                                                                             -
 -                                T I M I N G                                  -
 -                                                                             -
 -------------------------------------------------------------------------------
 SUBROUTINE                       CALLS  ASD         SELF TIME        TOTAL TIME
                                MAXIMUM       AVERAGE  MAXIMUM  AVERAGE  MAXIMUM
 CP2K                                 1  1.0    0.080    0.090 2948.813 2948.814
 qs_energies                          1  2.0    0.000    0.000 2939.765 2939.765
 scf_env_do_scf                       1  3.0    0.000    0.000 2921.394 2921.396
 scf_env_do_scf_inner_loop           26  4.0    0.001    0.002 2921.394 2921.396
 qs_ks_update_qs_env                 26  5.0    0.000    0.000 2627.404 2627.419
 rebuild_ks_matrix                   26  6.0    0.000    0.000 2627.398 2627.414
 qs_ks_build_kohn_sham_matrix        26  7.0 2268.843 2269.331 2627.398 2627.414
 fft_wrap_pw1pw2                    266  9.2    0.017    0.049  503.230  507.341
 fft_wrap_pw1pw2_500                107  9.7   12.208   12.905  460.713  468.118
 fft3d_ps                           266 11.2  247.190  254.520  356.532  367.852
 qs_rho_update_rho_low               27  5.0    0.000    0.000  303.715  303.716
 calculate_rho_elec                  27  6.0    3.339    3.368  303.715  303.716
 density_rs2pw                       27  7.0    0.004    0.004  287.519  290.098
 sum_up_and_integrate                26  8.0    0.000    0.001  149.757  149.784
 integrate_v_rspace                  26  9.0    0.001    0.002  149.757  149.784
 potential_pw2rs                     26 10.0    0.211    0.242  148.378  148.436
 pw_gather_p                        135 10.6   81.955   88.946   81.955   88.946
 pw_poisson_solve                    26  8.0    0.002    0.002   69.501   71.159
 yz_to_x                            135 11.6   43.210   44.751   59.740   65.173
 -------------------------------------------------------------------------------

 The number of warnings for this run is : 0
 
 -------------------------------------------------------------------------------
  **** **** ******  **  PROGRAM ENDED AT                 2026-08-13 13:36:44.373
 ***** ** ***  *** **   PROGRAM RAN ON            eb3791e2ef3243b6944400b65b9622
 **    ****   ******    PROGRAM RAN BY                                 <unknown>
 ***** **    ** ** **   PROGRAM PROCESS ID                                  1368
  **** **  *******  **  PROGRAM STOPPED IN                    /tmp/cp2k_lb2_jiqu
