&GLOBAL
  PRINT_LEVEL MEDIUM
  PROJECT_NAME 54e53fe6dde3ae33d2a8a62722e1fd1850489a4c
  RUN_TYPE ENERGY
&END GLOBAL
&FORCE_EVAL
  METHOD Quickstep
  &DFT
    BASIS_SET_FILE_NAME BASIS_MOLOPT_UZH
    POTENTIAL_FILE_NAME POTENTIAL_UZH
    CHARGE 0
    MULTIPLICITY 1
    UKS FALSE
    &MGRID
      CUTOFF 1000
      REL_CUTOFF 60
      NGRIDS 4
    &END MGRID
    &POISSON
      PERIODIC NONE
      POISSON_SOLVER ANALYTIC
    &END POISSON
    &QS
      EPS_DEFAULT 1e-10
    &END QS
    &SCF
      EPS_SCF 1e-05
      MAX_SCF 100
      SCF_GUESS ATOMIC
      &DIAGONALIZATION
      &END DIAGONALIZATION
      &MIXING
        METHOD DIRECT_P_MIXING
        ALPHA 0.4
        NMIXING 2
      &END MIXING
    &END SCF
    &XC
      &XC_FUNCTIONAL
        &GAUXC
          FUNCTIONAL PBE
          MODEL aug-s0-funv2-cpu.fun
          GRID FINE
          PRUNING_SCHEME ROBUST
          RADIAL_QUADRATURE MURAKNOWLES
        &END GAUXC
      &END XC_FUNCTIONAL
    &END XC
    &PRINT
      &MO
        ENERGIES T
        OCCNUMS  T
        &EACH
          QS_SCF 0
        &END
      &END
    &END
  &END DFT
  &SUBSYS
    &CELL
      ABC 41.0000 34.0000 34.0000
      ALPHA_BETA_GAMMA 90.0000 90.0000 90.0000
      PERIODIC NONE
    &END CELL
    &TOPOLOGY
      &CENTER_COORDINATES
      &END
    &END TOPOLOGY
    &COORD
      C       -4.1262199982       -0.7529999987        0.2299600001
      C       -4.3421599985        0.3006799993       -0.6664900025
      C       -3.2616299986        1.1094399986       -1.0359099997
      C       -1.9811300006        0.8770399994       -0.5289000012
      C       -1.7679300005       -0.1822299990        0.3704799974
      C       -2.8543900025       -0.9939099982        0.7496099995
      N       -0.4884100016       -0.4923699987        0.8579099998
      N        0.4884100016        0.4923699987        0.8579099998
      C        1.7679300005        0.1822299990        0.3704799974
      C        2.8543900025        0.9939099982        0.7496099995
      C        4.1262199982        0.7529999987        0.2299600001
      C        4.3421599985       -0.3006799993       -0.6664900025
      C        3.2616299986       -1.1094399986       -1.0359099997
      C        1.9811300006       -0.8770399994       -0.5289000012
      H       -0.4691499991       -1.1191800026        1.6584400024
      H        0.4691499991        1.1191800026        1.6584400024
      H       -4.9548300010       -1.3903500008        0.5336400002
      H       -5.3356899998        0.4891800021       -1.0666099986
      H       -3.4123400016        1.9327500005       -1.7321500009
      H       -1.1415399993        1.5016199976       -0.8197700022
      H       -2.6940900014       -1.8138899991        1.4498000018
      H        2.6940900014        1.8138899991        1.4498000018
      H        4.9548300010        1.3903500008        0.5336400002
      H        5.3356899998       -0.4891800021       -1.0666099986
      H        3.4123400016       -1.9327500005       -1.7321500009
      H        1.1415399993       -1.5016199976       -0.8197700022
    &END COORD
    &KIND C
      BASIS_SET TZVP-MOLOPT-SCAN-GTH-q4
      POTENTIAL GTH-SCAN-q4
    &END KIND
    &KIND H
      BASIS_SET TZVP-MOLOPT-SCAN-GTH-q1
      POTENTIAL GTH-SCAN-q1
    &END KIND
    &KIND N
      BASIS_SET TZVP-MOLOPT-SCAN-GTH-q5
      POTENTIAL GTH-SCAN-q5
    &END KIND
  &END SUBSYS
&END FORCE_EVAL

================================================================================
=== END OF CP2K INPUT / START OF CP2K OUTPUT ===
================================================================================

 DBCSR| CPU Multiplication driver                                           BLAS (U)
 DBCSR| Multrec recursion limit                                              512 (U)
 DBCSR| Multiplication stack size                                           1000 (D)
 DBCSR| Maximum elements for images                                    UNLIMITED (U)
 DBCSR| Multiplicative factor virtual images                                   1 (U)
 DBCSR| Use multiplication densification                                       T (D)
 DBCSR| Multiplication size stacks                                             3 (U)
 DBCSR| Use memory pool for CPU allocation                                     F (U)
 DBCSR| Number of 3D layers                                               SINGLE (U)
 DBCSR| Use MPI memory allocation                                              F (U)
 DBCSR| Use RMA algorithm                                                      F (U)
 DBCSR| Use Communication thread                                               T (U)
 DBCSR| Communication thread load                                             87 (D)
 DBCSR| MPI: My process id                                                     0
 DBCSR| MPI: Number of processes                                              16
 DBCSR| OMP: Current number of threads                                         1
 DBCSR| OMP: Max number of threads                                             1
 DBCSR| Split modifier for TAS multiplication algorithm                  1.0E+00 (U)


  **** **** ******  **  PROGRAM STARTED AT               2026-08-13 14:07:32.551
 ***** ** ***  *** **   PROGRAM STARTED ON        eb3791e2ef3243b6944400b65b9622
 **    ****   ******    PROGRAM STARTED BY                             <unknown>
 ***** **    ** ** **   PROGRAM PROCESS ID                                  2212
  **** **  *******  **  PROGRAM STARTED IN                    /tmp/cp2k_rng4cc__

 CP2K| version string:                                       CP2K version 2026.2
 CP2K| source code revision number:                                  git:c92cc08
 CP2K| cp2kflags: omp libint fftw3 libxc gauxc gauxc_mpi gauxc_onedft gauxc_host
 CP2K|             parallel scalapack mpi_f08 spglib sirius libtorch hdf5
 CP2K| is freely available from                            https://www.cp2k.org/
 CP2K| Program compiled at                                   2026-08-13 02:05:42
 CP2K| Program compiled on                                                      
 CP2K| Program compiled for                                               x86_64
 CP2K| Data directory path                             /opt/cp2k/share/cp2k/data
 CP2K| Input file name                                            cp2k_input.inp

 GLOBAL| Force Environment number                                              1
 GLOBAL| Basis set file name                                    BASIS_MOLOPT_UZH
 GLOBAL| Potential file name                                       POTENTIAL_UZH
 GLOBAL| MM Potential file name                                     MM_POTENTIAL
 GLOBAL| Coordinate file name                                      __STD_INPUT__
 GLOBAL| Method name                                                        CP2K
 GLOBAL| Project name                   54e53fe6dde3ae33d2a8a62722e1fd1850489a4c
 GLOBAL| Run type                                                         ENERGY
 GLOBAL| FFT library                                                       FFTW3
 GLOBAL| Diagonalization library                                       ScaLAPACK
 GLOBAL| Cholesky decomposition library                                ScaLAPACK
 GLOBAL| DGEMM library                                                      BLAS
 GLOBAL| Direct generalized diagonalization requested                          F
 GLOBAL| Orthonormality check for eigenvectors                          DISABLED
 GLOBAL| Matrix multiplication library                                 ScaLAPACK
 GLOBAL| All-to-all communication in single precision                          F
 GLOBAL| FFTs using library dependent lengths                                  F
 GLOBAL| Grid backend                                                       AUTO
 GLOBAL| Global print level                                               MEDIUM
 GLOBAL| MPI I/O enabled                                                       T
 GLOBAL| Total number of message passing processes                            16
 GLOBAL| Number of distributed systems (nodes)                                 1
 GLOBAL| Number of threads for this process                                    1
 GLOBAL| This output is from process                                           0
 GLOBAL| OpenMP stack size per thread (OMP_STACKSIZE)                        16M
 GLOBAL| CPU model name                          AMD EPYC 9V74 80-Core Processor
 GLOBAL| CPUID                                                              1002

 MEMORY| system memory details [Kb]
 MEMORY|                        rank 0           min           max       average
 MEMORY| MemTotal            263924000     263924000     263924000     263924000
 MEMORY| MemFree             235843096     235843096     235843096     235843096
 MEMORY| Buffers                413496        413496        413496        413496
 MEMORY| Cached               19252332      19252332      19252332      19252332
 MEMORY| Slab                  2084104       2084104       2084104       2084104
 MEMORY| SReclaimable          1685272       1685272       1685272       1685272
 MEMORY| MemLikelyFree       257194196     257194196     257194196     257194196


 *** Fundamental physical constants (SI units) ***

 *** Literature: B. J. Mohr and B. N. Taylor,
 ***             CODATA recommended values of the fundamental physical
 ***             constants: 2006, Web Version 5.1
 ***             http://physics.nist.gov/constants

 Speed of light in vacuum [m/s]                             2.99792458000000E+08
 Magnetic constant or permeability of vacuum [N/A**2]       1.25663706143592E-06
 Electric constant or permittivity of vacuum [F/m]          8.85418781762039E-12
 Planck constant (h) [J*s]                                  6.62606896000000E-34
 Planck constant (h-bar) [J*s]                              1.05457162825177E-34
 Elementary charge [C]                                      1.60217648700000E-19
 Electron mass [kg]                                         9.10938215000000E-31
 Electron g factor [ ]                                     -2.00231930436220E+00
 Proton mass [kg]                                           1.67262163700000E-27
 Fine-structure constant                                    7.29735253760000E-03
 Rydberg constant [1/m]                                     1.09737315685270E+07
 Avogadro constant [1/mol]                                  6.02214179000000E+23
 Boltzmann constant [J/K]                                   1.38065040000000E-23
 Atomic mass unit [kg]                                      1.66053878200000E-27
 Bohr radius [m]                                            5.29177208590000E-11

 *** Conversion factors ***

 [u] -> [a.u.]                                              1.82288848426455E+03
 [Angstrom] -> [Bohr] = [a.u.]                              1.88972613288564E+00
 [a.u.] = [Bohr] -> [Angstrom]                              5.29177208590000E-01
 [a.u.] -> [s]                                              2.41888432650478E-17
 [a.u.] -> [fs]                                             2.41888432650478E-02
 [a.u.] -> [J]                                              4.35974393937059E-18
 [a.u.] -> [N]                                              8.23872205491840E-08
 [a.u.] -> [K]                                              3.15774647902944E+05
 [a.u.] -> [kJ/mol]                                         2.62549961709828E+03
 [a.u.] -> [kcal/mol]                                       6.27509468713739E+02
 [a.u.] -> [Pa]                                             2.94210107994716E+13
 [a.u.] -> [bar]                                            2.94210107994716E+08
 [a.u.] -> [atm]                                            2.90362800883016E+08
 [a.u.] -> [eV]                                             2.72113838565563E+01
 [a.u.] -> [Hz]                                             6.57968392072181E+15
 [a.u.] -> [1/cm] (wave numbers)                            2.19474631370540E+05
 [a.u./Bohr**2] -> [1/cm]                                   5.14048714338585E+03
 

 CELL| Volume [angstrom^3]:                                         47396.000000
 CELL| Vector a [angstrom]:      41.000     0.000     0.000   |a| =    41.000000
 CELL| Vector b [angstrom]:       0.000    34.000     0.000   |b| =    34.000000
 CELL| Vector c [angstrom]:       0.000     0.000    34.000   |c| =    34.000000
 CELL| Angle (b,c), alpha [degree]:                                    90.000000
 CELL| Angle (a,c), beta  [degree]:                                    90.000000
 CELL| Angle (a,b), gamma [degree]:                                    90.000000
 CELL| Numerically orthorhombic:                                             YES
 CELL| Periodicity                                                          NONE

 CELL_REF| Volume [angstrom^3]:                                     47396.000000
 CELL_REF| Vector a [angstrom    41.000     0.000     0.000   |a| =    41.000000
 CELL_REF| Vector b [angstrom     0.000    34.000     0.000   |b| =    34.000000
 CELL_REF| Vector c [angstrom     0.000     0.000    34.000   |c| =    34.000000
 CELL_REF| Angle (b,c), alpha [degree]:                                90.000000
 CELL_REF| Angle (a,c), beta  [degree]:                                90.000000
 CELL_REF| Angle (a,b), gamma [degree]:                                90.000000
 CELL_REF| Numerically orthorhombic:                                         YES
 CELL_REF| Periodicity                                                      NONE

 GENERATE|  Preliminary Number of Bonds generated:                             0
 GENERATE|  Achieved consistency in connectivity generation.

 *******************************************************************************
 *******************************************************************************
 **                                                                           **
 **     #####                         ##              ##                      **
 **    ##   ##            ##          ##              ##                      **
 **   ##     ##                       ##            ######                    **
 **   ##     ##  ##   ##  ##   #####  ##  ##   ####   ##    #####    #####    **
 **   ##     ##  ##   ##  ##  ##      ## ##   ##      ##   ##   ##  ##   ##   **
 **   ##  ## ##  ##   ##  ##  ##      ####     ###    ##   ######   ######    **
 **    ##  ###   ##   ##  ##  ##      ## ##      ##   ##   ##       ##        **
 **     #######   #####   ##   #####  ##  ##  ####    ##    #####   ##        **
 **           ##                                                    ##        **
 **                                                                           **
 **                                                ... make the atoms dance   **
 **                                                                           **
 **            Copyright (C) by CP2K developers group (2000-2026)             **
 **                      J. Chem. Phys. 152, 194103 (2020)                    **
 **                                                                           **
 *******************************************************************************

 DFT| Spin restricted Kohn-Sham (RKS) calculation                            RKS
 DFT| Multiplicity                                                             1
 DFT| Number of spin states                                                    1
 DFT| Charge                                                                   0
 DFT| Self-interaction correction (SIC)                                       NO
 DFT| Cutoffs: density                                              1.000000E-10
 DFT|          gradient                                             1.000000E-10
 DFT|          tau                                                  1.000000E-10
 DFT|          cutoff_smoothing_range                               0.000000E+00
 DFT| XC density smoothing                                                  NONE
 DFT| XC derivatives                                                          PW

 FUNCTIONAL| GAUXC:
 FUNCTIONAL| Functional computed by GauXC Skala model aug-s0-funv2-cpu.fun      


 QS| Method:                                                                 GPW
 QS| Density plane wave grid type                        NON-SPHERICAL FULLSPACE
 QS| Number of grid levels:                                                    4
 QS| Density cutoff [a.u.]:                                                500.0
 QS| Multi grid cutoff [a.u.]: 1) grid level                               500.0
 QS|                           2) grid level                               166.7
 QS|                           3) grid level                                55.6
 QS|                           4) grid level                                18.5
 QS| Grid level progression factor:                                          3.0
 QS| Relative density cutoff [a.u.]:                                        30.0
 QS| Interaction thresholds: eps_pgf_orb:                                1.0E-05
 QS|                         eps_filter_matrix:                          0.0E+00
 QS|                         eps_core_charge:                            1.0E-12
 QS|                         eps_rho_gspace:                             1.0E-10
 QS|                         eps_rho_rspace:                             1.0E-10
 QS|                         eps_gvg_rspace:                             1.0E-05
 QS|                         eps_ppl:                                    1.0E-02
 QS|                         eps_ppnl:                                   1.0E-07


 ATOMIC KIND INFORMATION

  1. Atomic kind: C                                     Number of atoms:      12

     Orbital Basis Set                                   TZVP-MOLOPT-SCAN-GTH-q4

       Number of orbital shell sets:                                           1
       Number of orbital shells:                                               7
       Number of primitive Cartesian functions:                                5
       Number of Cartesian basis functions:                                   18
       Number of spherical basis functions:                                   17
       Norm type:                                                              2

       Normalised Cartesian orbitals:

                        Set   Shell   Orbital            Exponent    Coefficient

                          1       1    2s                5.623460      -0.349209
                                                         2.098559      -0.253875
                                                         0.820511       0.248209
                                                         0.317331       0.216287
                                                         0.111116       0.012850

                          1       2    3s                5.623460       0.160090
                                                         2.098559       0.144150
                                                         0.820511      -0.103023
                                                         0.317331       0.001075
                                                         0.111116       0.142208

                          1       3    4s                5.623460      -1.207693
                                                         2.098559      -1.266789
                                                         0.820511       0.734368
                                                         0.317331      -0.329587
                                                         0.111116       0.046451

                          1       4    3px               5.623460      -0.717953
                                                         2.098559      -0.559659
                                                         0.820511      -0.405261
                                                         0.317331      -0.145150
                                                         0.111116      -0.020126
                          1       4    3py               5.623460      -0.717953
                                                         2.098559      -0.559659
                                                         0.820511      -0.405261
                                                         0.317331      -0.145150
                                                         0.111116      -0.020126
                          1       4    3pz               5.623460      -0.717953
                                                         2.098559      -0.559659
                                                         0.820511      -0.405261
                                                         0.317331      -0.145150
                                                         0.111116      -0.020126

                          1       5    4px               5.623460       0.831730
                                                         2.098559       0.877901
                                                         0.820511       0.415963
                                                         0.317331       0.032156
                                                         0.111116      -0.090730
                          1       5    4py               5.623460       0.831730
                                                         2.098559       0.877901
                                                         0.820511       0.415963
                                                         0.317331       0.032156
                                                         0.111116      -0.090730
                          1       5    4pz               5.623460       0.831730
                                                         2.098559       0.877901
                                                         0.820511       0.415963
                                                         0.317331       0.032156
                                                         0.111116      -0.090730

                          1       6    5px               5.623460       1.619151
                                                         2.098559       2.412091
                                                         0.820511       0.659876
                                                         0.317331      -0.314050
                                                         0.111116       0.028213
                          1       6    5py               5.623460       1.619151
                                                         2.098559       2.412091
                                                         0.820511       0.659876
                                                         0.317331      -0.314050
                                                         0.111116       0.028213
                          1       6    5pz               5.623460       1.619151
                                                         2.098559       2.412091
                                                         0.820511       0.659876
                                                         0.317331      -0.314050
                                                         0.111116       0.028213

                          1       7    4dx2              5.623460      -2.005729
                                                         2.098559       1.064556
                                                         0.820511       0.464044
                                                         0.317331       0.120863
                                                         0.111116       0.003311
                          1       7    4dxy              5.623460      -3.474025
                                                         2.098559       1.843865
                                                         0.820511       0.803748
                                                         0.317331       0.209340
                                                         0.111116       0.005735
                          1       7    4dxz              5.623460      -3.474025
                                                         2.098559       1.843865
                                                         0.820511       0.803748
                                                         0.317331       0.209340
                                                         0.111116       0.005735
                          1       7    4dy2              5.623460      -2.005729
                                                         2.098559       1.064556
                                                         0.820511       0.464044
                                                         0.317331       0.120863
                                                         0.111116       0.003311
                          1       7    4dyz              5.623460      -3.474025
                                                         2.098559       1.843865
                                                         0.820511       0.803748
                                                         0.317331       0.209340
                                                         0.111116       0.005735
                          1       7    4dz2              5.623460      -2.005729
                                                         2.098559       1.064556
                                                         0.820511       0.464044
                                                         0.317331       0.120863
                                                         0.111116       0.003311

       Atomic covalent radius [Angstrom]:                                  0.770

       Atomic van der Waals radius [Angstrom]:                             1.700

     GTH Potential information for                                   GTH-SCAN-q4

       Description:                       Goedecker-Teter-Hutter pseudopotential
                                           Goedecker et al., PRB 54, 1703 (1996)
                                          Hartwigsen et al., PRB 58, 3641 (1998)
                                                      Krack, TCA 114, 145 (2005)

       Gaussian exponent of the core charge distribution:               4.454624
       Electronic configuration (s p d ...):                       2   2   0   0

       Parameters of the local part of the GTH pseudopotential:

                          rloc        C1          C2          C3          C4
                        0.335027   -8.822616    1.299117

       Parameters of the non-local part of the GTH pseudopotential:

                   l      r(l)      h(i,j,l)

                   0    0.303798    9.625763

  2. Atomic kind: N                                     Number of atoms:       2

     Orbital Basis Set                                   TZVP-MOLOPT-SCAN-GTH-q5

       Number of orbital shell sets:                                           1
       Number of orbital shells:                                               7
       Number of primitive Cartesian functions:                                5
       Number of Cartesian basis functions:                                   18
       Number of spherical basis functions:                                   17
       Norm type:                                                              2

       Normalised Cartesian orbitals:

                        Set   Shell   Orbital            Exponent    Coefficient

                          1       1    2s                7.741240      -0.372569
                                                         2.739304      -0.219396
                                                         1.077565       0.278149
                                                         0.425476       0.232020
                                                         0.142415       0.034612

                          1       2    3s                7.741240       0.271946
                                                         2.739304       0.236866
                                                         1.077565      -0.248170
                                                         0.425476      -0.061031
                                                         0.142415       0.200154

                          1       3    4s                7.741240      -1.413950
                                                         2.739304      -2.318830
                                                         1.077565       1.978599
                                                         0.425476      -0.833623
                                                         0.142415       0.105972

                          1       4    3px               7.741240      -1.168229
                                                         2.739304      -0.942518
                                                         1.077565      -0.541668
                                                         0.425476      -0.212751
                                                         0.142415      -0.025014
                          1       4    3py               7.741240      -1.168229
                                                         2.739304      -0.942518
                                                         1.077565      -0.541668
                                                         0.425476      -0.212751
                                                         0.142415      -0.025014
                          1       4    3pz               7.741240      -1.168229
                                                         2.739304      -0.942518
                                                         1.077565      -0.541668
                                                         0.425476      -0.212751
                                                         0.142415      -0.025014

                          1       5    4px               7.741240       0.928701
                                                         2.739304       0.844788
                                                         1.077565       0.526172
                                                         0.425476       0.069589
                                                         0.142415      -0.132325
                          1       5    4py               7.741240       0.928701
                                                         2.739304       0.844788
                                                         1.077565       0.526172
                                                         0.425476       0.069589
                                                         0.142415      -0.132325
                          1       5    4pz               7.741240       0.928701
                                                         2.739304       0.844788
                                                         1.077565       0.526172
                                                         0.425476       0.069589
                                                         0.142415      -0.132325

                          1       6    5px               7.741240       1.578027
                                                         2.739304       2.303105
                                                         1.077565       1.543896
                                                         0.425476      -0.542746
                                                         0.142415       0.030053
                          1       6    5py               7.741240       1.578027
                                                         2.739304       2.303105
                                                         1.077565       1.543896
                                                         0.425476      -0.542746
                                                         0.142415       0.030053
                          1       6    5pz               7.741240       1.578027
                                                         2.739304       2.303105
                                                         1.077565       1.543896
                                                         0.425476      -0.542746
                                                         0.142415       0.030053

                          1       7    4dx2              7.741240      -0.128620
                                                         2.739304       0.958133
                                                         1.077565       0.733739
                                                         0.425476       0.247613
                                                         0.142415      -0.003923
                          1       7    4dxy              7.741240      -0.222777
                                                         2.739304       1.659536
                                                         1.077565       1.270873
                                                         0.425476       0.428878
                                                         0.142415      -0.006794
                          1       7    4dxz              7.741240      -0.222777
                                                         2.739304       1.659536
                                                         1.077565       1.270873
                                                         0.425476       0.428878
                                                         0.142415      -0.006794
                          1       7    4dy2              7.741240      -0.128620
                                                         2.739304       0.958133
                                                         1.077565       0.733739
                                                         0.425476       0.247613
                                                         0.142415      -0.003923
                          1       7    4dyz              7.741240      -0.222777
                                                         2.739304       1.659536
                                                         1.077565       1.270873
                                                         0.425476       0.428878
                                                         0.142415      -0.006794
                          1       7    4dz2              7.741240      -0.128620
                                                         2.739304       0.958133
                                                         1.077565       0.733739
                                                         0.425476       0.247613
                                                         0.142415      -0.003923

       Atomic covalent radius [Angstrom]:                                  0.750

       Atomic van der Waals radius [Angstrom]:                             1.550

     GTH Potential information for                                   GTH-SCAN-q5

       Description:                       Goedecker-Teter-Hutter pseudopotential
                                           Goedecker et al., PRB 54, 1703 (1996)
                                          Hartwigsen et al., PRB 58, 3641 (1998)
                                                      Krack, TCA 114, 145 (2005)

       Gaussian exponent of the core charge distribution:               6.165682
       Electronic configuration (s p d ...):                       2   3   0   0

       Parameters of the local part of the GTH pseudopotential:

                          rloc        C1          C2          C3          C4
                        0.284770  -12.418435    1.850749

       Parameters of the non-local part of the GTH pseudopotential:

                   l      r(l)      h(i,j,l)

                   0    0.256275   13.645095

  3. Atomic kind: H                                     Number of atoms:      12

     Orbital Basis Set                                   TZVP-MOLOPT-SCAN-GTH-q1

       Number of orbital shell sets:                                           1
       Number of orbital shells:                                               4
       Number of primitive Cartesian functions:                                5
       Number of Cartesian basis functions:                                    6
       Number of spherical basis functions:                                    6
       Norm type:                                                              2

       Normalised Cartesian orbitals:

                        Set   Shell   Orbital            Exponent    Coefficient

                          1       1    2s                9.168765       0.095357
                                                         2.161194       0.125778
                                                         0.619868       0.162183
                                                         0.161316       0.074849
                                                         0.412255       0.090962

                          1       2    3s                9.168765      -0.435739
                                                         2.161194      -0.868971
                                                         0.619868      -0.406683
                                                         0.161316      -0.142964
                                                         0.412255       0.978336

                          1       3    4s                9.168765       0.385896
                                                         2.161194       1.113624
                                                         0.619868       0.043366
                                                         0.161316      -0.067676
                                                         0.412255       0.053421

                          1       4    3px               9.168765      -1.788640
                                                         2.161194       0.906920
                                                         0.619868       0.273605
                                                         0.161316       0.091389
                                                         0.412255       0.008094
                          1       4    3py               9.168765      -1.788640
                                                         2.161194       0.906920
                                                         0.619868       0.273605
                                                         0.161316       0.091389
                                                         0.412255       0.008094
                          1       4    3pz               9.168765      -1.788640
                                                         2.161194       0.906920
                                                         0.619868       0.273605
                                                         0.161316       0.091389
                                                         0.412255       0.008094

       Atomic covalent radius [Angstrom]:                                  0.320

       Atomic van der Waals radius [Angstrom]:                             1.090

     GTH Potential information for                                   GTH-SCAN-q1

       Description:                       Goedecker-Teter-Hutter pseudopotential
                                           Goedecker et al., PRB 54, 1703 (1996)
                                          Hartwigsen et al., PRB 58, 3641 (1998)
                                                      Krack, TCA 114, 145 (2005)

       Gaussian exponent of the core charge distribution:              12.429142
       Electronic configuration (s p d ...):                       1   0   0   0

       Parameters of the local part of the GTH pseudopotential:

                          rloc        C1          C2          C3          C4
                        0.200569   -4.177243    0.723816


 MOLECULE KIND INFORMATION


 All atoms are their own molecule, skipping detailed information


 TOTAL NUMBERS AND MAXIMUM NUMBERS

  Total number of            - Atomic kinds:                                   3
                             - Atoms:                                         26
                             - Shell sets:                                    26
                             - Shells:                                       146
                             - Primitive Cartesian functions:                130
                             - Cartesian basis functions:                    324
                             - Spherical basis functions:                    310

  Maximum angular momentum of- Orbital basis functions:                        2
                             - Local part of the GTH pseudopotential:          2
                             - Non-local part of the GTH pseudopotential:      0


 MODULE QUICKSTEP: ATOMIC COORDINATES IN ANGSTROM

   Atom Kind Element         X             Y             Z       Z(eff)     Mass
      1    1 C     6     16.373780     16.247000     17.266815   4.0000  12.0107
      2    1 C     6     16.157840     17.300680     16.370365   4.0000  12.0107
      3    1 C     6     17.238370     18.109440     16.000945   4.0000  12.0107
      4    1 C     6     18.518870     17.877040     16.507955   4.0000  12.0107
      5    1 C     6     18.732070     16.817770     17.407335   4.0000  12.0107
      6    1 C     6     17.645610     16.006090     17.786465   4.0000  12.0107
      7    2 N     7     20.011590     16.507630     17.894765   5.0000  14.0067
      8    2 N     7     20.988410     17.492370     17.894765   5.0000  14.0067
      9    1 C     6     22.267930     17.182230     17.407335   4.0000  12.0107
     10    1 C     6     23.354390     17.993910     17.786465   4.0000  12.0107
     11    1 C     6     24.626220     17.753000     17.266815   4.0000  12.0107
     12    1 C     6     24.842160     16.699320     16.370365   4.0000  12.0107
     13    1 C     6     23.761630     15.890560     16.000945   4.0000  12.0107
     14    1 C     6     22.481130     16.122960     16.507955   4.0000  12.0107
     15    3 H     1     20.030850     15.880820     18.695295   1.0000   1.0079
     16    3 H     1     20.969150     18.119180     18.695295   1.0000   1.0079
     17    3 H     1     15.545170     15.609650     17.570495   1.0000   1.0079
     18    3 H     1     15.164310     17.489180     15.970245   1.0000   1.0079
     19    3 H     1     17.087660     18.932750     15.304705   1.0000   1.0079
     20    3 H     1     19.358460     18.501620     16.217085   1.0000   1.0079
     21    3 H     1     17.805910     15.186110     18.486655   1.0000   1.0079
     22    3 H     1     23.194090     18.813890     18.486655   1.0000   1.0079
     23    3 H     1     25.454830     18.390350     17.570495   1.0000   1.0079
     24    3 H     1     25.835690     16.510820     15.970245   1.0000   1.0079
     25    3 H     1     23.912340     15.067250     15.304705   1.0000   1.0079
     26    3 H     1     21.641540     15.498380     16.217085   1.0000   1.0079



 SCF PARAMETERS         Density guess:                                    ATOMIC
                        --------------------------------------------------------
                        max_scf:                                             100
                        max_scf_history:                                       0
                        max_diis:                                              4
                        --------------------------------------------------------
                        eps_scf:                                        1.00E-05
                        eps_scf_history:                                0.00E+00
                        eps_diis:                                       1.00E-01
                        eps_eigval:                                     1.00E-05
                        --------------------------------------------------------
                        level_shift [a.u.]:                             0.000000
                        --------------------------------------------------------
                        Mixing method:                           DIRECT_P_MIXING
                        --------------------------------------------------------
                        No outer SCF

 PW_GRID| Information for grid number                                          1
 PW_GRID| Grid distributed over                                    16 processors
 PW_GRID| Real space group dimensions                                    16    1
 PW_GRID| the grid is blocked:                                                NO
 PW_GRID| Cutoff [a.u.]                                                    500.0
 PW_GRID| spherical cutoff:                                                   NO
 PW_GRID|   Bounds   1           -400     399                Points:         800
 PW_GRID|   Bounds   2           -324     323                Points:         648
 PW_GRID|   Bounds   3           -324     323                Points:         648
 PW_GRID| Volume element (a.u.^3)  0.9521E-03     Volume (a.u.^3)    319844.0659
 PW_GRID| Grid span                                                    FULLSPACE
 PW_GRID|   Distribution                         Average         Max         Min
 PW_GRID|   G-Vectors                         20995200.0    20995200    20995200
 PW_GRID|   G-Rays                               26244.0       26244       26244
 PW_GRID|   Real Space Points                 20995200.0    20995200    20995200

 PW_GRID| Information for grid number                                          2
 PW_GRID| Number of the reference grid                                         1
 PW_GRID| Grid distributed over                                    16 processors
 PW_GRID| Real space group dimensions                                    16    1
 PW_GRID| the grid is blocked:                                                NO
 PW_GRID| Cutoff [a.u.]                                                    166.7
 PW_GRID| spherical cutoff:                                                   NO
 PW_GRID|   Bounds   1           -240     239                Points:         480
 PW_GRID|   Bounds   2           -187     187                Points:         375
 PW_GRID|   Bounds   3           -187     187                Points:         375
 PW_GRID| Volume element (a.u.^3)  0.4738E-02     Volume (a.u.^3)    319844.0659
 PW_GRID| Grid span                                                    FULLSPACE
 PW_GRID|   Distribution                         Average         Max         Min
 PW_GRID|   G-Vectors                          4218750.0     4219680     4218240
 PW_GRID|   G-Rays                                8789.1        8791        8788
 PW_GRID|   Real Space Points                  4218750.0     4218750     4218750

 PW_GRID| Information for grid number                                          3
 PW_GRID| Number of the reference grid                                         1
 PW_GRID| Grid distributed over                                    16 processors
 PW_GRID| Real space group dimensions                                    16    1
 PW_GRID| the grid is blocked:                                                NO
 PW_GRID| Cutoff [a.u.]                                                     55.6
 PW_GRID| spherical cutoff:                                                   NO
 PW_GRID|   Bounds   1           -135     134                Points:         270
 PW_GRID|   Bounds   2           -108     107                Points:         216
 PW_GRID|   Bounds   3           -108     107                Points:         216
 PW_GRID| Volume element (a.u.^3)  0.2539E-01     Volume (a.u.^3)    319844.0659
 PW_GRID| Grid span                                                    FULLSPACE
 PW_GRID|   Distribution                         Average         Max         Min
 PW_GRID|   G-Vectors                           787320.0      787860      787050
 PW_GRID|   G-Rays                                2916.0        2918        2915
 PW_GRID|   Real Space Points                   787320.0      793152      746496

 PW_GRID| Information for grid number                                          4
 PW_GRID| Number of the reference grid                                         1
 PW_GRID| Grid distributed over                                    16 processors
 PW_GRID| Real space group dimensions                                    16    1
 PW_GRID| the grid is blocked:                                                NO
 PW_GRID| Cutoff [a.u.]                                                     18.5
 PW_GRID| spherical cutoff:                                                   NO
 PW_GRID|   Bounds   1            -80      79                Points:         160
 PW_GRID|   Bounds   2            -62      62                Points:         125
 PW_GRID|   Bounds   3            -62      62                Points:         125
 PW_GRID| Volume element (a.u.^3)  0.1279         Volume (a.u.^3)    319844.0659
 PW_GRID| Grid span                                                    FULLSPACE
 PW_GRID|   Distribution                         Average         Max         Min
 PW_GRID|   G-Vectors                           156250.0      156480      156000
 PW_GRID|   G-Rays                                 976.6         978         975
 PW_GRID|   Real Space Points                   156250.0      156250      156250

 POISSON| Solver                                                        ANALYTIC
 POISSON| Periodicity                                                       NONE

 RS_GRID| Information for grid number                                          1
 RS_GRID|   Bounds   1           -400     399                Points:         800
 RS_GRID|   Bounds   2           -324     323                Points:         648
 RS_GRID|   Bounds   3           -324     323                Points:         648
 RS_GRID| Real space distribution over                                  4 groups
 RS_GRID| Real space distribution along direction                              1
 RS_GRID| Border size                                                         27
 RS_GRID| Real space distribution over                                  4 groups
 RS_GRID| Real space distribution along direction                              3
 RS_GRID| Border size                                                         27
 RS_GRID|   Distribution                         Average         Max         Min
 RS_GRID|   Planes                                 254.0         254         254
 RS_GRID|   Distribution                         Average         Max         Min
 RS_GRID|   Planes                                 216.0         216         216

 RS_GRID| Information for grid number                                          2
 RS_GRID|   Bounds   1           -240     239                Points:         480
 RS_GRID|   Bounds   2           -187     187                Points:         375
 RS_GRID|   Bounds   3           -187     187                Points:         375
 RS_GRID| Real space distribution over                                  4 groups
 RS_GRID| Real space distribution along direction                              1
 RS_GRID| Border size                                                         27
 RS_GRID| Real space distribution over                                  4 groups
 RS_GRID| Real space distribution along direction                              3
 RS_GRID| Border size                                                         27
 RS_GRID|   Distribution                         Average         Max         Min
 RS_GRID|   Planes                                 174.0         174         174
 RS_GRID|   Distribution                         Average         Max         Min
 RS_GRID|   Planes                                 147.8         148         147

 RS_GRID| Information for grid number                                          3
 RS_GRID|   Bounds   1           -135     134                Points:         270
 RS_GRID|   Bounds   2           -108     107                Points:         216
 RS_GRID|   Bounds   3           -108     107                Points:         216
 RS_GRID| Real space fully replicated
 RS_GRID| Group size                                                           1

 RS_GRID| Information for grid number                                          4
 RS_GRID|   Bounds   1            -80      79                Points:         160
 RS_GRID|   Bounds   2            -62      62                Points:         125
 RS_GRID|   Bounds   3            -62      62                Points:         125
 RS_GRID| Real space fully replicated
 RS_GRID| Group size                                                           1

 Extrapolation method: initial_guess

 Atomic guess: The first density matrix is obtained in terms of atomic orbitals
               and electronic configurations assigned to each atomic kind

 Guess for atomic kind: C

 Electronic structure
    Total number of core electrons                                          2.00
    Total number of valence electrons                                       4.00
    Total number of electrons                                               6.00
    Multiplicity                                                   not specified
    S   [  2.00] 2.00
    P      2.00


 *******************************************************************************
                  Iteration          Convergence                     Energy [au]
 *******************************************************************************
                          1        0.124377                      -5.269415449983
                          2        0.880091E-01                  -5.274432015385
                          3        0.424095E-03                  -5.279419090830
                          4        0.118108E-03                  -5.279419164687
                          5        0.144057E-06                  -5.279419172500

 Energy components [Hartree]           Total Energy ::           -5.279419172500
                                        Band Energy ::           -1.313739125276
                                     Kinetic Energy ::            3.405940495234
                                   Potential Energy ::           -8.685359667734
                                      Virial (-V/T) ::            2.550062069460
                                        Core Energy ::           -8.290068838701
                                          XC Energy ::           -1.377173731606
                                     Coulomb Energy ::            4.387823397806
                       Total Pseudopotential Energy ::          -11.730281123094
                       Local Pseudopotential Energy ::          -12.376528803709
                    Nonlocal Pseudopotential Energy ::            0.646247680614
                                        Confinement ::            0.342717891594

 Orbital energies  State     L     Occupation   Energy[a.u.]          Energy[eV]

                       1     0          2.000      -0.480601          -13.077809

                       1     1          2.000      -0.176269           -4.796521


 Total Electron Density at R=0:                                         0.000000

 Guess for atomic kind: N

 Electronic structure
    Total number of core electrons                                          2.00
    Total number of valence electrons                                       5.00
    Total number of electrons                                               7.00
    Multiplicity                                                   not specified
    S   [  2.00] 2.00
    P      3.00


 *******************************************************************************
                  Iteration          Convergence                     Energy [au]
 *******************************************************************************
                          1        0.346146                      -9.510631084718
                          2        0.293961                      -9.519323476596
                          3        0.462882E-02                  -9.543943533173
                          4        0.376937E-03                  -9.543951832803
                          5        0.269242E-05                  -9.543951869815
                          6        0.125879E-05                  -9.543951869817
                          7        0.339213E-08                  -9.543951869817

 Energy components [Hartree]           Total Energy ::           -9.543951869817
                                        Band Energy ::           -2.045283632630
                                     Kinetic Energy ::            6.768365898222
                                   Potential Energy ::          -16.312317768040
                                      Virial (-V/T) ::            2.410082139963
                                        Core Energy ::          -15.546390569991
                                          XC Energy ::           -2.165368606550
                                     Coulomb Energy ::            8.167807306724
                       Total Pseudopotential Energy ::          -22.351839014438
                       Local Pseudopotential Energy ::          -23.300988197283
                    Nonlocal Pseudopotential Energy ::            0.949149182846
                                        Confinement ::            0.370825462242

 Orbital energies  State     L     Occupation   Energy[a.u.]          Energy[eV]

                       1     0          2.000      -0.656585          -17.866573

                       1     1          3.000      -0.244038           -6.640617


 Total Electron Density at R=0:                                         0.000014

 Guess for atomic kind: H

 Electronic structure
    Total number of core electrons                                          0.00
    Total number of valence electrons                                       1.00
    Total number of electrons                                               1.00
    Multiplicity                                                   not specified
    S      1.00


 *******************************************************************************
                  Iteration          Convergence                     Energy [au]
 *******************************************************************************
                          1        0.364523E-02                  -0.422484553466
                          2        0.146100E-03                  -0.422490428911
                          3        0.266755E-04                  -0.422490480125
                          4        0.362968E-08                  -0.422490480723

 Energy components [Hartree]           Total Energy ::           -0.422490480723
                                        Band Energy ::           -0.192735382727
                                     Kinetic Energy ::            0.477952444388
                                   Potential Energy ::           -0.900442925111
                                      Virial (-V/T) ::            1.883959242566
                                        Core Energy ::           -0.479166166213
                                          XC Energy ::           -0.248560768168
                                     Coulomb Energy ::            0.305236453657
                       Total Pseudopotential Energy ::           -0.975131101124
                       Local Pseudopotential Energy ::           -0.975131101124
                    Nonlocal Pseudopotential Energy ::            0.000000000000
                                        Confinement ::            0.180124905236

 Orbital energies  State     L     Occupation   Energy[a.u.]          Energy[eV]

                       1     0          1.000      -0.192735           -5.244596


 Total Electron Density at R=0:                                         0.249202
 Re-scaling the density matrix to get the right number of electrons
                  # Electrons              Trace(P)               Scaling factor
                           70                70.000                        1.000

 Number of electrons:                                                         70
 Number of occupied orbitals:                                                 35
 Number of molecular orbitals:                                                35

 Number of orbital functions:                                                310
 Number of independent orbital functions:                                    310


 SCF WAVEFUNCTION OPTIMIZATION

  Step     Update method      Time    Convergence         Total energy    Change
  ------------------------------------------------------------------------------
     1 P_Mix/Diag. 0.40E+00   39.4     1.20247464       -94.2848583359 -9.43E+01
     2 P_Mix/Diag. 0.40E+00   48.0     0.59312886       -94.6370881398 -3.52E-01
     3 P_Mix/Diag. 0.40E+00   47.1     0.31898987       -94.8071319205 -1.70E-01
     4 P_Mix/Diag. 0.40E+00   48.1     0.17949513       -94.9084458287 -1.01E-01
     5 P_Mix/Diag. 0.40E+00   47.8     0.10292082       -94.9705407374 -6.21E-02
     6 P_Mix/Diag. 0.40E+00   47.0     0.06374171       -95.0083599972 -3.78E-02
     7 DIIS/Diag.  0.42E-02   47.2     0.03947537       -95.0312699331 -2.29E-02
     8 DIIS/Diag.  0.15E-02   47.0     0.00260597       -95.0660609637 -3.48E-02
     9 DIIS/Diag.  0.11E-02   47.4     0.00195117       -95.0660750554 -1.41E-05
    10 DIIS/Diag.  0.15E-02   46.3     0.00143177       -95.0660743097  7.46E-07
    11 DIIS/Diag.  0.58E-03   46.2     0.00063486       -95.0660819309 -7.62E-06
    12 DIIS/Diag.  0.33E-03   46.0     0.00036564       -95.0660832788 -1.35E-06
    13 DIIS/Diag.  0.41E-03   46.8     0.00024219       -95.0660836069 -3.28E-07
    14 DIIS/Diag.  0.19E-03   46.7     0.00012742       -95.0660838800 -2.73E-07
    15 DIIS/Diag.  0.13E-03   47.7     0.00015402       -95.0660839656 -8.56E-08
    16 DIIS/Diag.  0.10E-03   47.6     0.00010827       -95.0660839881 -2.25E-08
    17 DIIS/Diag.  0.83E-04   45.6     0.00006314       -95.0660840169 -2.87E-08
    18 DIIS/Diag.  0.89E-04   45.0     0.00006580       -95.0660840262 -9.39E-09
    19 DIIS/Diag.  0.51E-04   45.9     0.00004638       -95.0660840307 -4.44E-09
    20 DIIS/Diag.  0.35E-04   44.7     0.00003378       -95.0660840495 -1.88E-08
    21 DIIS/Diag.  0.30E-04   46.5     0.00003554       -95.0660840525 -3.01E-09
    22 DIIS/Diag.  0.21E-04   44.8     0.00002122       -95.0660840522  2.93E-10
    23 DIIS/Diag.  0.23E-04   45.8     0.00001986       -95.0660840669 -1.47E-08
    24 DIIS/Diag.  0.17E-04   44.7     0.00001085       -95.0660840629  4.02E-09
    25 DIIS/Diag.  0.11E-04   45.4     0.00000818       -95.0660840576  5.30E-09

  *** SCF run converged in    25 steps ***


  Electronic density on regular grids:        -69.9999999998        0.0000000002
  Core density on regular grids:               69.9999999947       -0.0000000053
  Total charge density on r-space grids:       -0.0000000051
  Total charge density g-space grids:          -0.0000000051

  Overlap energy of the core charge distribution:               0.00000459518213
  Self energy of the core charge distribution:               -228.07321275899912
  Core Hamiltonian energy:                                     70.53752637700948
  Hartree energy:                                              92.51282203859959
  Exchange-correlation energy:                                -30.04322430940066

  Total energy:                                               -95.06608405760858

 MO| EIGENVALUES AND OCCUPATION NUMBERS
 MO|
 MO|  Index      Eigenvalue [a.u.]        Eigenvalue [eV]             Occupation
 MO|      1              -0.983645             -26.766355               2.000000
 MO|      2              -0.843877             -22.963066               2.000000
 MO|      3              -0.809158             -22.018305               2.000000
 MO|      4              -0.780627             -21.241943               2.000000
 MO|      5              -0.711025             -19.347962               2.000000
 MO|      6              -0.709873             -19.316614               2.000000
 MO|      7              -0.703121             -19.132909               2.000000
 MO|      8              -0.674272             -18.347876               2.000000
 MO|      9              -0.589483             -16.040637               2.000000
 MO|     10              -0.582360             -15.846824               2.000000
 MO|     11              -0.575180             -15.651440               2.000000
 MO|     12              -0.555330             -15.111285               2.000000
 MO|     13              -0.513504             -13.973143               2.000000
 MO|     14              -0.506431             -13.780691               2.000000
 MO|     15              -0.503773             -13.708365               2.000000
 MO|     16              -0.458171             -12.467456               2.000000
 MO|     17              -0.452980             -12.326210               2.000000
 MO|     18              -0.415281             -11.300369               2.000000
 MO|     19              -0.409425             -11.141012               2.000000
 MO|     20              -0.406745             -11.068097               2.000000
 MO|     21              -0.403266             -10.973433               2.000000
 MO|     22              -0.390801             -10.634242               2.000000
 MO|     23              -0.390485             -10.625647               2.000000
 MO|     24              -0.366760              -9.980060               2.000000
 MO|     25              -0.361165              -9.827792               2.000000
 MO|     26              -0.334543              -9.103366               2.000000
 MO|     27              -0.331674              -9.025303               2.000000
 MO|     28              -0.317391              -8.636651               2.000000
 MO|     29              -0.313907              -8.541855               2.000000
 MO|     30              -0.294500              -8.013761               2.000000
 MO|     31              -0.294467              -8.012857               2.000000
 MO|     32              -0.243638              -6.629716               2.000000
 MO|     33              -0.242968              -6.611500               2.000000
 MO|     34              -0.208599              -5.676255               2.000000
 MO|     35              -0.193514              -5.265774               2.000000
 MO| Sum:                                                              70.000000
 MO| E(Fermi):           -0.193514 a.u.         -5.265774 eV


 !-----------------------------------------------------------------------------!
                     Mulliken Population Analysis

 #  Atom  Element  Kind  Atomic population                           Net charge
       1     C        1          3.983479                              0.016521
       2     C        1          4.014687                             -0.014687
       3     C        1          3.970787                              0.029213
       4     C        1          4.111945                             -0.111945
       5     C        1          3.751867                              0.248133
       6     C        1          4.106198                             -0.106198
       7     N        2          5.154947                             -0.154947
       8     N        2          5.154947                             -0.154947
       9     C        1          3.751867                              0.248133
      10     C        1          4.106198                             -0.106198
      11     C        1          3.983479                              0.016521
      12     C        1          4.014687                             -0.014687
      13     C        1          3.970787                              0.029213
      14     C        1          4.111945                             -0.111945
      15     H        3          0.869723                              0.130277
      16     H        3          0.869723                              0.130277
      17     H        3          1.008185                             -0.008185
      18     H        3          1.009134                             -0.009134
      19     H        3          1.008551                             -0.008551
      20     H        3          0.998532                              0.001468
      21     H        3          1.011966                             -0.011966
      22     H        3          1.011966                             -0.011966
      23     H        3          1.008185                             -0.008185
      24     H        3          1.009134                             -0.009134
      25     H        3          1.008551                             -0.008551
      26     H        3          0.998532                              0.001468
 # Total charge                             70.000000                  0.000000

 !-----------------------------------------------------------------------------!

 !-----------------------------------------------------------------------------!
                           Hirshfeld Charges

  #Atom  Element  Kind  Ref Charge     Population                    Net charge
      1       C      1       4.000          4.442                        -0.442
      2       C      1       4.000          4.464                        -0.464
      3       C      1       4.000          4.437                        -0.437
      4       C      1       4.000          4.452                        -0.452
      5       C      1       4.000          3.886                         0.114
      6       C      1       4.000          4.482                        -0.482
      7       N      2       5.000          5.561                        -0.561
      8       N      2       5.000          5.561                        -0.561
      9       C      1       4.000          3.886                         0.114
     10       C      1       4.000          4.482                        -0.482
     11       C      1       4.000          4.442                        -0.442
     12       C      1       4.000          4.464                        -0.464
     13       C      1       4.000          4.437                        -0.437
     14       C      1       4.000          4.452                        -0.452
     15       H      3       1.000          0.488                         0.512
     16       H      3       1.000          0.488                         0.512
     17       H      3       1.000          0.553                         0.447
     18       H      3       1.000          0.552                         0.448
     19       H      3       1.000          0.553                         0.447
     20       H      3       1.000          0.547                         0.453
     21       H      3       1.000          0.554                         0.446
     22       H      3       1.000          0.554                         0.446
     23       H      3       1.000          0.553                         0.447
     24       H      3       1.000          0.552                         0.448
     25       H      3       1.000          0.553                         0.447
     26       H      3       1.000          0.547                         0.453

  Total Charge                                                            0.058
 !-----------------------------------------------------------------------------!

 ENERGY| Total FORCE_EVAL ( QS ) energy [hartree]            -95.066084057608577

 -------------------------------------------------------------------------------
 -                                                                             -
 -                                DBCSR STATISTICS                             -
 -                                                                             -
 -------------------------------------------------------------------------------
 COUNTER                                    TOTAL       BLAS       SMM       ACC
 flops     6 x     6 x     3               388800     100.0%      0.0%      0.0%     
 flops     6 x    17 x     3              1285200     100.0%      0.0%      0.0%     
 flops    17 x     6 x     3              1285200     100.0%      0.0%      0.0%     
 flops     6 x     6 x    32              4147200     100.0%      0.0%      0.0%     
 flops    17 x    17 x     3              4551750     100.0%      0.0%      0.0%     
 flops     6 x    17 x    32             13708800     100.0%      0.0%      0.0%     
 flops    17 x     6 x    32             13708800     100.0%      0.0%      0.0%     
 flops    17 x    17 x    32             48552000     100.0%      0.0%      0.0%     
 flops inhomo. stacks                           0       0.0%      0.0%      0.0%
 flops total                        87.627750E+06     100.0%      0.0%      0.0%
 flops max/rank                      6.674500E+06     100.0%      0.0%      0.0%
 matmuls inhomo. stacks                         0       0.0%      0.0%      0.0%
 matmuls total                              17250     100.0%      0.0%      0.0%
 number of processed stacks                  3200     100.0%      0.0%      0.0%
 average stack size                                     5.4       0.0       0.0
 marketing flops                   168.175040E+06
 -------------------------------------------------------------------------------
 # multiplications                             25
 max memory usage/rank              12.559860E+09
 # max total images/rank                        1
 # max 3D layers                                1
 # MPI messages exchanged                    2400
 MPI messages size (bytes):
  total size                        13.020000E+06
  min size                           0.000000E+00
  max size                          20.480000E+03
  average size                       5.425000E+03
 MPI breakdown and total messages size (bytes):
             size <=      128                1200                        0
       128 < size <=     8192                 600                  1116000
      8192 < size <=    32768                 600                 11904000
     32768 < size <=   131072                   0                        0
    131072 < size <=  4194304                   0                        0
   4194304 < size <= 16777216                   0                        0
  16777216 < size                               0                        0
 -------------------------------------------------------------------------------
 -                                                                             -
 -                      DBCSR MESSAGE PASSING PERFORMANCE                      -
 -                                                                             -
 -------------------------------------------------------------------------------
 ROUTINE             CALLS      AVE VOLUME [Bytes]
 MP_Bcast                9                     12.
 MP_Allreduce          160                     12.
 MP_Alltoall           825                  25971.
 MP_ISend              400                   2894.
 MP_IRecv              400                    326.
 -------------------------------------------------------------------------------

 -------------------------------------------------------------------------------
 -                                                                             -
 -                                GRID STATISTICS                              -
 -                                                                             -
 -------------------------------------------------------------------------------
 LP    KERNEL             BACKEND                              COUNT     PERCENT
 3     collocate ortho    CPU                                   4316      22.42%
 3     integrate ortho    CPU                                   4150      21.55%
 4     collocate ortho    CPU                                   3926      20.39%
 4     integrate ortho    CPU                                   3775      19.61%
 2     collocate ortho    CPU                                   1534       7.97%
 2     integrate ortho    CPU                                   1475       7.66%
 0     collocate general  CPU                                     52       0.27%
 0     integrate general  CPU                                     26       0.14%
 -------------------------------------------------------------------------------

 -------------------------------------------------------------------------------
 -                                                                             -
 -                          OFFLOAD MEMPOOL STATISTICS                         -
 -                                                                             -
 -------------------------------------------------------------------------------
 Memory consumption                Number of allocations  Used [MiB]  Size [MiB]
 Host                                                  6         460    11824717
 -------------------------------------------------------------------------------

 MEMORY| Estimated peak process memory [MiB]                                9687

 -------------------------------------------------------------------------------
 ----                             MULTIGRID INFO                            ----
 -------------------------------------------------------------------------------
 count for grid        1:         189014          cutoff [a.u.]          500.00
 count for grid        2:         157065          cutoff [a.u.]          166.67
 count for grid        3:         117685          cutoff [a.u.]           55.56
 count for grid        4:          65497          cutoff [a.u.]           18.52
 total gridlevel count  :         529261

 -------------------------------------------------------------------------------
 -                                                                             -
 -                         MESSAGE PASSING PERFORMANCE                         -
 -                                                                             -
 -------------------------------------------------------------------------------

 ROUTINE             CALLS      AVE VOLUME [Bytes]
 MP_Group                4
 MP_Bcast              142                 217209.
 MP_Allreduce          454                  58836.
 MP_Sync                29
 MP_Alltoall           321              483725444.
 MP_SendRecv           780                3797608.
 MP_ISendRecv          750                3797608.
 MP_Wait              1905
 MP_comm_split          25
 MP_ISend              840               22950706.
 MP_IRecv              840               22951027.
 -------------------------------------------------------------------------------


 -------------------------------------------------------------------------------
 -                                                                             -
 -                           R E F E R E N C E S                               -
 -                                                                             -
 -------------------------------------------------------------------------------
 
 CP2K version 2026.2, the CP2K developers group (2026).
 CP2K is freely available from https://www.cp2k.org/ .
 
 M. Iannuzzi, J. Wilhelm, F. Stein, A. Bussy, H. Elgabarty, D. Golze, A. Hehn, 
 M. Graml, S. Marek, B. Sertcan Gökmen, C. Schran, H. Forbert, R. Z. 
 Khaliullin, A. Kozhevnikov, M. Taillefumier, R. Meli, V. V. Rybkin, M. Brehm, 
 R. Schade, O. Schütt, J. V. Pototschnig, H. Mirhosseini, A. Knüpfer, D. Marx, 
 M. Krack, J. Hutter, T. D. Kühne.
 J. Phys. Chem. B 130, 1237-1310 (2026).
 The CP2K Program Package Made Simple.
 https://doi.org/10.1021/acs.jpcb.5c05851

 T. D. Kühne, M. Iannuzzi, M. Del Ben, V. V. Rybkin, P. Seewald, F. Stein, T. 
 Laino, R. Z. Khaliullin, O. Schütt, F. Schiffmann, D. Golze, J. Wilhelm, S. 
 Chulkov, M. H. Bani-Hashemian, V. Weber, U. Borstnik, M. Taillefumier, A. S. 
 Jakobovits, A. Lazzaro, H. Pabst, T. Müller, R. Schade, M. Guidon, S. 
 Andermatt, N. Holmberg, G. K. Schenter, A. Hehn, A. Bussy, F. Belleflamme, G. 
 Tabacchi, A. Glöß, M. Lass, I. Bethune, C. J. Mundy, C. Plessl, M. Watkins, 
 J. VandeVondele, M. Krack, J. Hutter.
 J. Chem. Phys. 152, 194103 (2020).
 CP2K: An electronic structure and molecular dynamics software package - 
 Quickstep: Efficient and accurate electronic structure calculations.
 https://doi.org/10.1063/5.0007045

 O. Schuett, P. Messmer, J. Hutter, J. VandeVondele.
 Electronic Structure Calculations on Graphics Processing Units, 173-190 (2016).
 GPU-Accelerated Sparse Matrix-Matrix Multiplication for Linear Scaling Density 
 Functional Theory.
 https://doi.org/10.1002/9781118670712.ch8

 U. Borstnik, J. VandeVondele, V. Weber, J. Hutter.
 Parallel Comput. 40, 47-58 (2014).
 Sparse matrix multiplication: The distributed block-compressed sparse row 
 library.
 https://doi.org/10.1016/j.parco.2014.03.012

 J. VandeVondele, J. Hutter.
 J. Chem. Phys. 127, 114105 (2007).
 Gaussian basis sets for accurate calculations on molecular systems in gas and 
 condensed phases.
 https://doi.org/10.1063/1.2770708

 J. VandeVondele, M. Krack, F. Mohamed, M. Parrinello, T. Chassaing, J. Hutter.
 Comput. Phys. Commun. 167, 103-128 (2005).
 QUICKSTEP: Fast and accurate density functional calculations using a mixed 
 Gaussian and plane waves approach.
 https://doi.org/10.1016/j.cpc.2004.12.014

 M. Krack.
 Theor. Chem. Acc. 114, 145-152 (2005).
 Pseudopotentials for H to Kr optimized for gradient-corrected 
 exchange-correlation functionals.
 https://doi.org/10.1007/s00214-005-0655-y

 M. Frigo, S. G. Johnson.
 Proc. IEEE 93, 216-231 (2005).
 The design and implementation of FFTW3.
 https://doi.org/10.1109/JPROC.2004.840301

 C. Hartwigsen, S. Goedecker, J. Hutter.
 Phys. Rev. B 58, 3641-3662 (1998).
 Relativistic separable dual-space Gaussian pseudopotentials from H to Rn.
 https://doi.org/10.1103/PhysRevB.58.3641

 G. Lippert, J. Hutter, M. Parrinello.
 Mol. Phys. 92, 477-487 (1997).
 A hybrid Gaussian and plane wave density functional scheme.
 https://doi.org/10.1080/002689797170220

 S. Goedecker, M. Teter, J. Hutter.
 Phys. Rev. B 54, 1703-1710 (1996).
 Separable dual-space Gaussian pseudopotentials.
 https://doi.org/10.1103/PhysRevB.54.1703


 -------------------------------------------------------------------------------
 -                                                                             -
 -                                T I M I N G                                  -
 -                                                                             -
 -------------------------------------------------------------------------------
 SUBROUTINE                       CALLS  ASD         SELF TIME        TOTAL TIME
                                MAXIMUM       AVERAGE  MAXIMUM  AVERAGE  MAXIMUM
 CP2K                                 1  1.0    0.065    0.075 1179.146 1179.147
 qs_energies                          1  2.0    0.000    0.000 1172.632 1172.632
 scf_env_do_scf                       1  3.0    0.000    0.000 1160.833 1160.833
 scf_env_do_scf_inner_loop           25  4.0    0.001    0.002 1160.833 1160.833
 qs_ks_update_qs_env                 25  5.0    0.000    0.000  997.487  997.491
 rebuild_ks_matrix                   25  6.0    0.000    0.000  997.484  997.488
 qs_ks_build_kohn_sham_matrix        25  7.0  787.309  787.388  997.484  997.488
 fft_wrap_pw1pw2                    256  9.2    0.013    0.017  267.827  268.839
 fft_wrap_pw1pw2_500                103  9.7    8.876    9.125  237.724  241.430
 fft3d_ps                           256 11.2   91.932   93.993  173.602  182.631
 qs_rho_update_rho_low               26  5.0    0.000    0.000  169.866  169.866
 calculate_rho_elec                  26  6.0    2.348    2.392  169.866  169.866
 density_rs2pw                       26  7.0    0.004    0.004  158.248  158.753
 sum_up_and_integrate                25  8.0    0.000    0.000  101.238  101.243
 integrate_v_rspace                  25  9.0    0.001    0.001  101.237  101.243
 potential_pw2rs                     25 10.0    0.120    0.147  100.860  100.907
 pw_gather_p                        130 10.6   51.052   54.399   51.052   54.399
 pw_poisson_solve                    25  8.0    0.002    0.002   50.113   51.292
 yz_to_x                            130 11.6   31.227   32.778   44.390   48.113
 x_to_yz                            126 12.8   22.772   23.697   37.266   42.235
 mp_alltoall_z22v                   256 13.2   27.657   36.158   27.657   36.158
 pw_poisson_set                      26  8.9    0.004    0.004   31.488   32.666
 fft_wrap_pw1pw2_170                 51 10.5    0.308    0.371   25.030   29.925
 pw_scatter_p                       126 11.8   23.389   29.787   23.389   29.787
 pw_copy                            250 10.0   23.438   23.959   23.438   23.959
 -------------------------------------------------------------------------------

 The number of warnings for this run is : 0
 
 -------------------------------------------------------------------------------
  **** **** ******  **  PROGRAM ENDED AT                 2026-08-13 14:27:13.257
 ***** ** ***  *** **   PROGRAM RAN ON            eb3791e2ef3243b6944400b65b9622
 **    ****   ******    PROGRAM RAN BY                                 <unknown>
 ***** **    ** ** **   PROGRAM PROCESS ID                                  2212
  **** **  *******  **  PROGRAM STOPPED IN                    /tmp/cp2k_rng4cc__
