&GLOBAL
  PRINT_LEVEL MEDIUM
  PROJECT_NAME 72b5337a01fda041321db7026d180a3f3e97d39b
  RUN_TYPE ENERGY
&END GLOBAL
&FORCE_EVAL
  METHOD Quickstep
  &DFT
    BASIS_SET_FILE_NAME BASIS_MOLOPT_UZH
    POTENTIAL_FILE_NAME POTENTIAL_UZH
    CHARGE 0
    MULTIPLICITY 1
    UKS FALSE
    &MGRID
      CUTOFF 1000
      REL_CUTOFF 60
      NGRIDS 4
    &END MGRID
    &POISSON
      PERIODIC NONE
      POISSON_SOLVER ANALYTIC
    &END POISSON
    &QS
      EPS_DEFAULT 1e-10
    &END QS
    &SCF
      EPS_SCF 1e-05
      MAX_SCF 100
      SCF_GUESS ATOMIC
      &DIAGONALIZATION
      &END DIAGONALIZATION
      &MIXING
        METHOD DIRECT_P_MIXING
        ALPHA 0.4
        NMIXING 2
      &END MIXING
    &END SCF
    &XC
      &XC_FUNCTIONAL
        &GAUXC
          FUNCTIONAL PBE
          MODEL aug-s0-funv2-cpu.fun
          GRID FINE
          PRUNING_SCHEME ROBUST
          RADIAL_QUADRATURE MURAKNOWLES
        &END GAUXC
      &END XC_FUNCTIONAL
    &END XC
    &PRINT
      &MO
        ENERGIES T
        OCCNUMS  T
        &EACH
          QS_SCF 0
        &END
      &END
    &END
  &END DFT
  &SUBSYS
    &CELL
      ABC 30.0000 35.0000 36.0000
      ALPHA_BETA_GAMMA 90.0000 90.0000 90.0000
      PERIODIC NONE
    &END CELL
    &TOPOLOGY
      &CENTER_COORDINATES
      &END
    &END TOPOLOGY
    &COORD
      Br        0.0000000000        0.0000000000        1.7941500011
      C         0.0000000000        0.0000000000       -0.0976500020
      C         0.0000000000        1.2071000021       -0.7758000010
      C         0.0000000000        1.1996599981       -2.1630199979
      C         0.0000000000        0.0000000000       -2.8580199994
      C         0.0000000000       -1.1996599981       -2.1630199979
      C         0.0000000000       -1.2071000021       -0.7758000010
      H         0.0000000000        2.1390299978       -0.2275699977
      H         0.0000000000        2.1395000024       -2.6999799978
      H         0.0000000000        0.0000000000       -3.9401599997
      H         0.0000000000       -2.1395000024       -2.6999799978
      H         0.0000000000       -2.1390299978       -0.2275699977
    &END COORD
    &KIND Br
      BASIS_SET TZVP-MOLOPT-SCAN-GTH-q7
      POTENTIAL GTH-SCAN-q7
    &END KIND
    &KIND C
      BASIS_SET TZVP-MOLOPT-SCAN-GTH-q4
      POTENTIAL GTH-SCAN-q4
    &END KIND
    &KIND H
      BASIS_SET TZVP-MOLOPT-SCAN-GTH-q1
      POTENTIAL GTH-SCAN-q1
    &END KIND
  &END SUBSYS
&END FORCE_EVAL

================================================================================
=== END OF CP2K INPUT / START OF CP2K OUTPUT ===
================================================================================

 DBCSR| CPU Multiplication driver                                           BLAS (U)
 DBCSR| Multrec recursion limit                                              512 (U)
 DBCSR| Multiplication stack size                                           1000 (D)
 DBCSR| Maximum elements for images                                    UNLIMITED (U)
 DBCSR| Multiplicative factor virtual images                                   1 (U)
 DBCSR| Use multiplication densification                                       T (D)
 DBCSR| Multiplication size stacks                                             3 (U)
 DBCSR| Use memory pool for CPU allocation                                     F (U)
 DBCSR| Number of 3D layers                                               SINGLE (U)
 DBCSR| Use MPI memory allocation                                              F (U)
 DBCSR| Use RMA algorithm                                                      F (U)
 DBCSR| Use Communication thread                                               T (U)
 DBCSR| Communication thread load                                             87 (D)
 DBCSR| MPI: My process id                                                     0
 DBCSR| MPI: Number of processes                                              16
 DBCSR| OMP: Current number of threads                                         1
 DBCSR| OMP: Max number of threads                                             1
 DBCSR| Split modifier for TAS multiplication algorithm                  1.0E+00 (U)


  **** **** ******  **  PROGRAM STARTED AT               2026-08-13 13:20:16.674
 ***** ** ***  *** **   PROGRAM STARTED ON        eb3791e2ef3243b6944400b65b9622
 **    ****   ******    PROGRAM STARTED BY                             <unknown>
 ***** **    ** ** **   PROGRAM PROCESS ID                                  1231
  **** **  *******  **  PROGRAM STARTED IN                    /tmp/cp2k_8kahvwa6

 CP2K| version string:                                       CP2K version 2026.2
 CP2K| source code revision number:                                  git:c92cc08
 CP2K| cp2kflags: omp libint fftw3 libxc gauxc gauxc_mpi gauxc_onedft gauxc_host
 CP2K|             parallel scalapack mpi_f08 spglib sirius libtorch hdf5
 CP2K| is freely available from                            https://www.cp2k.org/
 CP2K| Program compiled at                                   2026-08-13 02:05:42
 CP2K| Program compiled on                                                      
 CP2K| Program compiled for                                               x86_64
 CP2K| Data directory path                             /opt/cp2k/share/cp2k/data
 CP2K| Input file name                                            cp2k_input.inp

 GLOBAL| Force Environment number                                              1
 GLOBAL| Basis set file name                                    BASIS_MOLOPT_UZH
 GLOBAL| Potential file name                                       POTENTIAL_UZH
 GLOBAL| MM Potential file name                                     MM_POTENTIAL
 GLOBAL| Coordinate file name                                      __STD_INPUT__
 GLOBAL| Method name                                                        CP2K
 GLOBAL| Project name                   72b5337a01fda041321db7026d180a3f3e97d39b
 GLOBAL| Run type                                                         ENERGY
 GLOBAL| FFT library                                                       FFTW3
 GLOBAL| Diagonalization library                                       ScaLAPACK
 GLOBAL| Cholesky decomposition library                                ScaLAPACK
 GLOBAL| DGEMM library                                                      BLAS
 GLOBAL| Direct generalized diagonalization requested                          F
 GLOBAL| Orthonormality check for eigenvectors                          DISABLED
 GLOBAL| Matrix multiplication library                                 ScaLAPACK
 GLOBAL| All-to-all communication in single precision                          F
 GLOBAL| FFTs using library dependent lengths                                  F
 GLOBAL| Grid backend                                                       AUTO
 GLOBAL| Global print level                                               MEDIUM
 GLOBAL| MPI I/O enabled                                                       T
 GLOBAL| Total number of message passing processes                            16
 GLOBAL| Number of distributed systems (nodes)                                 1
 GLOBAL| Number of threads for this process                                    1
 GLOBAL| This output is from process                                           0
 GLOBAL| OpenMP stack size per thread (OMP_STACKSIZE)                        16M
 GLOBAL| CPU model name                          AMD EPYC 9V74 80-Core Processor
 GLOBAL| CPUID                                                              1002

 MEMORY| system memory details [Kb]
 MEMORY|                        rank 0           min           max       average
 MEMORY| MemTotal            263924000     263924000     263924000     263924000
 MEMORY| MemFree             236055720     236055720     236055720     236055720
 MEMORY| Buffers                408452        408452        408452        408452
 MEMORY| Cached               19026304      19026304      19026304      19026304
 MEMORY| Slab                  2079560       2079560       2079560       2079560
 MEMORY| SReclaimable          1681796       1681796       1681796       1681796
 MEMORY| MemLikelyFree       257172272     257172272     257172272     257172272


 *** Fundamental physical constants (SI units) ***

 *** Literature: B. J. Mohr and B. N. Taylor,
 ***             CODATA recommended values of the fundamental physical
 ***             constants: 2006, Web Version 5.1
 ***             http://physics.nist.gov/constants

 Speed of light in vacuum [m/s]                             2.99792458000000E+08
 Magnetic constant or permeability of vacuum [N/A**2]       1.25663706143592E-06
 Electric constant or permittivity of vacuum [F/m]          8.85418781762039E-12
 Planck constant (h) [J*s]                                  6.62606896000000E-34
 Planck constant (h-bar) [J*s]                              1.05457162825177E-34
 Elementary charge [C]                                      1.60217648700000E-19
 Electron mass [kg]                                         9.10938215000000E-31
 Electron g factor [ ]                                     -2.00231930436220E+00
 Proton mass [kg]                                           1.67262163700000E-27
 Fine-structure constant                                    7.29735253760000E-03
 Rydberg constant [1/m]                                     1.09737315685270E+07
 Avogadro constant [1/mol]                                  6.02214179000000E+23
 Boltzmann constant [J/K]                                   1.38065040000000E-23
 Atomic mass unit [kg]                                      1.66053878200000E-27
 Bohr radius [m]                                            5.29177208590000E-11

 *** Conversion factors ***

 [u] -> [a.u.]                                              1.82288848426455E+03
 [Angstrom] -> [Bohr] = [a.u.]                              1.88972613288564E+00
 [a.u.] = [Bohr] -> [Angstrom]                              5.29177208590000E-01
 [a.u.] -> [s]                                              2.41888432650478E-17
 [a.u.] -> [fs]                                             2.41888432650478E-02
 [a.u.] -> [J]                                              4.35974393937059E-18
 [a.u.] -> [N]                                              8.23872205491840E-08
 [a.u.] -> [K]                                              3.15774647902944E+05
 [a.u.] -> [kJ/mol]                                         2.62549961709828E+03
 [a.u.] -> [kcal/mol]                                       6.27509468713739E+02
 [a.u.] -> [Pa]                                             2.94210107994716E+13
 [a.u.] -> [bar]                                            2.94210107994716E+08
 [a.u.] -> [atm]                                            2.90362800883016E+08
 [a.u.] -> [eV]                                             2.72113838565563E+01
 [a.u.] -> [Hz]                                             6.57968392072181E+15
 [a.u.] -> [1/cm] (wave numbers)                            2.19474631370540E+05
 [a.u./Bohr**2] -> [1/cm]                                   5.14048714338585E+03
 

 CELL| Volume [angstrom^3]:                                         37800.000000
 CELL| Vector a [angstrom]:      30.000     0.000     0.000   |a| =    30.000000
 CELL| Vector b [angstrom]:       0.000    35.000     0.000   |b| =    35.000000
 CELL| Vector c [angstrom]:       0.000     0.000    36.000   |c| =    36.000000
 CELL| Angle (b,c), alpha [degree]:                                    90.000000
 CELL| Angle (a,c), beta  [degree]:                                    90.000000
 CELL| Angle (a,b), gamma [degree]:                                    90.000000
 CELL| Numerically orthorhombic:                                             YES
 CELL| Periodicity                                                          NONE

 CELL_REF| Volume [angstrom^3]:                                     37800.000000
 CELL_REF| Vector a [angstrom    30.000     0.000     0.000   |a| =    30.000000
 CELL_REF| Vector b [angstrom     0.000    35.000     0.000   |b| =    35.000000
 CELL_REF| Vector c [angstrom     0.000     0.000    36.000   |c| =    36.000000
 CELL_REF| Angle (b,c), alpha [degree]:                                90.000000
 CELL_REF| Angle (a,c), beta  [degree]:                                90.000000
 CELL_REF| Angle (a,b), gamma [degree]:                                90.000000
 CELL_REF| Numerically orthorhombic:                                         YES
 CELL_REF| Periodicity                                                      NONE

 GENERATE|  Preliminary Number of Bonds generated:                             0
 GENERATE|  Achieved consistency in connectivity generation.

 *******************************************************************************
 *******************************************************************************
 **                                                                           **
 **     #####                         ##              ##                      **
 **    ##   ##            ##          ##              ##                      **
 **   ##     ##                       ##            ######                    **
 **   ##     ##  ##   ##  ##   #####  ##  ##   ####   ##    #####    #####    **
 **   ##     ##  ##   ##  ##  ##      ## ##   ##      ##   ##   ##  ##   ##   **
 **   ##  ## ##  ##   ##  ##  ##      ####     ###    ##   ######   ######    **
 **    ##  ###   ##   ##  ##  ##      ## ##      ##   ##   ##       ##        **
 **     #######   #####   ##   #####  ##  ##  ####    ##    #####   ##        **
 **           ##                                                    ##        **
 **                                                                           **
 **                                                ... make the atoms dance   **
 **                                                                           **
 **            Copyright (C) by CP2K developers group (2000-2026)             **
 **                      J. Chem. Phys. 152, 194103 (2020)                    **
 **                                                                           **
 *******************************************************************************

 DFT| Spin restricted Kohn-Sham (RKS) calculation                            RKS
 DFT| Multiplicity                                                             1
 DFT| Number of spin states                                                    1
 DFT| Charge                                                                   0
 DFT| Self-interaction correction (SIC)                                       NO
 DFT| Cutoffs: density                                              1.000000E-10
 DFT|          gradient                                             1.000000E-10
 DFT|          tau                                                  1.000000E-10
 DFT|          cutoff_smoothing_range                               0.000000E+00
 DFT| XC density smoothing                                                  NONE
 DFT| XC derivatives                                                          PW

 FUNCTIONAL| GAUXC:
 FUNCTIONAL| Functional computed by GauXC Skala model aug-s0-funv2-cpu.fun      


 QS| Method:                                                                 GPW
 QS| Density plane wave grid type                        NON-SPHERICAL FULLSPACE
 QS| Number of grid levels:                                                    4
 QS| Density cutoff [a.u.]:                                                500.0
 QS| Multi grid cutoff [a.u.]: 1) grid level                               500.0
 QS|                           2) grid level                               166.7
 QS|                           3) grid level                                55.6
 QS|                           4) grid level                                18.5
 QS| Grid level progression factor:                                          3.0
 QS| Relative density cutoff [a.u.]:                                        30.0
 QS| Interaction thresholds: eps_pgf_orb:                                1.0E-05
 QS|                         eps_filter_matrix:                          0.0E+00
 QS|                         eps_core_charge:                            1.0E-12
 QS|                         eps_rho_gspace:                             1.0E-10
 QS|                         eps_rho_rspace:                             1.0E-10
 QS|                         eps_gvg_rspace:                             1.0E-05
 QS|                         eps_ppl:                                    1.0E-02
 QS|                         eps_ppnl:                                   1.0E-07


 ATOMIC KIND INFORMATION

  1. Atomic kind: Br                                    Number of atoms:       1

     Orbital Basis Set                                   TZVP-MOLOPT-SCAN-GTH-q7

       Number of orbital shell sets:                                           1
       Number of orbital shells:                                               7
       Number of primitive Cartesian functions:                                4
       Number of Cartesian basis functions:                                   18
       Number of spherical basis functions:                                   17
       Norm type:                                                              2

       Normalised Cartesian orbitals:

                        Set   Shell   Orbital            Exponent    Coefficient

                          1       1    2s                1.488690       0.699780
                                                         1.328218      -0.651750
                                                         0.356645      -0.053745
                                                         0.118591      -0.120315

                          1       2    3s                1.488690       1.168220
                                                         1.328218      -0.173679
                                                         0.356645      -0.782981
                                                         0.118591       0.244936

                          1       3    4s                1.488690       0.057668
                                                         1.328218      -0.762456
                                                         0.356645       0.198027
                                                         0.118591       0.100772

                          1       4    3px               1.488690       0.446922
                                                         1.328218      -0.433569
                                                         0.356645      -0.047781
                                                         0.118591      -0.089201
                          1       4    3py               1.488690       0.446922
                                                         1.328218      -0.433569
                                                         0.356645      -0.047781
                                                         0.118591      -0.089201
                          1       4    3pz               1.488690       0.446922
                                                         1.328218      -0.433569
                                                         0.356645      -0.047781
                                                         0.118591      -0.089201

                          1       5    4px               1.488690       4.294444
                                                         1.328218      -3.849825
                                                         0.356645      -0.476023
                                                         0.118591       0.099371
                          1       5    4py               1.488690       4.294444
                                                         1.328218      -3.849825
                                                         0.356645      -0.476023
                                                         0.118591       0.099371
                          1       5    4pz               1.488690       4.294444
                                                         1.328218      -3.849825
                                                         0.356645      -0.476023
                                                         0.118591       0.099371

                          1       6    5px               1.488690      -0.976710
                                                         1.328218      -1.652558
                                                         0.356645       0.257011
                                                         0.118591       0.001591
                          1       6    5py               1.488690      -0.976710
                                                         1.328218      -1.652558
                                                         0.356645       0.257011
                                                         0.118591       0.001591
                          1       6    5pz               1.488690      -0.976710
                                                         1.328218      -1.652558
                                                         0.356645       0.257011
                                                         0.118591       0.001591

                          1       7    4dx2              1.488690       1.527747
                                                         1.328218      -1.685428
                                                         0.356645      -0.217583
                                                         0.118591      -0.005359
                          1       7    4dxy              1.488690       2.646136
                                                         1.328218      -2.919247
                                                         0.356645      -0.376864
                                                         0.118591      -0.009281
                          1       7    4dxz              1.488690       2.646136
                                                         1.328218      -2.919247
                                                         0.356645      -0.376864
                                                         0.118591      -0.009281
                          1       7    4dy2              1.488690       1.527747
                                                         1.328218      -1.685428
                                                         0.356645      -0.217583
                                                         0.118591      -0.005359
                          1       7    4dyz              1.488690       2.646136
                                                         1.328218      -2.919247
                                                         0.356645      -0.376864
                                                         0.118591      -0.009281
                          1       7    4dz2              1.488690       1.527747
                                                         1.328218      -1.685428
                                                         0.356645      -0.217583
                                                         0.118591      -0.005359

       Atomic covalent radius [Angstrom]:                                  1.140

       Atomic van der Waals radius [Angstrom]:                             1.850

     GTH Potential information for                                   GTH-SCAN-q7

       Description:                       Goedecker-Teter-Hutter pseudopotential
                                           Goedecker et al., PRB 54, 1703 (1996)
                                          Hartwigsen et al., PRB 58, 3641 (1998)
                                                      Krack, TCA 114, 145 (2005)

       Gaussian exponent of the core charge distribution:               2.052288
       Electronic configuration (s p d ...):                       2   5   0   0

       Parameters of the local part of the GTH pseudopotential:

                          rloc        C1          C2          C3          C4
                        0.493589

       Parameters of the non-local part of the GTH pseudopotential:

                   l      r(l)      h(i,j,l)

                   0    0.438667    6.078913    0.330499   -1.238383
                                    0.330499   -2.440907    3.197490
                                   -1.238383    3.197490   -2.537941
                   1    0.451676    2.459419    0.522753
                                    0.522753   -0.618564
                   2    0.567035    0.544051

  2. Atomic kind: C                                     Number of atoms:       6

     Orbital Basis Set                                   TZVP-MOLOPT-SCAN-GTH-q4

       Number of orbital shell sets:                                           1
       Number of orbital shells:                                               7
       Number of primitive Cartesian functions:                                5
       Number of Cartesian basis functions:                                   18
       Number of spherical basis functions:                                   17
       Norm type:                                                              2

       Normalised Cartesian orbitals:

                        Set   Shell   Orbital            Exponent    Coefficient

                          1       1    2s                5.623460      -0.349209
                                                         2.098559      -0.253875
                                                         0.820511       0.248209
                                                         0.317331       0.216287
                                                         0.111116       0.012850

                          1       2    3s                5.623460       0.160090
                                                         2.098559       0.144150
                                                         0.820511      -0.103023
                                                         0.317331       0.001075
                                                         0.111116       0.142208

                          1       3    4s                5.623460      -1.207693
                                                         2.098559      -1.266789
                                                         0.820511       0.734368
                                                         0.317331      -0.329587
                                                         0.111116       0.046451

                          1       4    3px               5.623460      -0.717953
                                                         2.098559      -0.559659
                                                         0.820511      -0.405261
                                                         0.317331      -0.145150
                                                         0.111116      -0.020126
                          1       4    3py               5.623460      -0.717953
                                                         2.098559      -0.559659
                                                         0.820511      -0.405261
                                                         0.317331      -0.145150
                                                         0.111116      -0.020126
                          1       4    3pz               5.623460      -0.717953
                                                         2.098559      -0.559659
                                                         0.820511      -0.405261
                                                         0.317331      -0.145150
                                                         0.111116      -0.020126

                          1       5    4px               5.623460       0.831730
                                                         2.098559       0.877901
                                                         0.820511       0.415963
                                                         0.317331       0.032156
                                                         0.111116      -0.090730
                          1       5    4py               5.623460       0.831730
                                                         2.098559       0.877901
                                                         0.820511       0.415963
                                                         0.317331       0.032156
                                                         0.111116      -0.090730
                          1       5    4pz               5.623460       0.831730
                                                         2.098559       0.877901
                                                         0.820511       0.415963
                                                         0.317331       0.032156
                                                         0.111116      -0.090730

                          1       6    5px               5.623460       1.619151
                                                         2.098559       2.412091
                                                         0.820511       0.659876
                                                         0.317331      -0.314050
                                                         0.111116       0.028213
                          1       6    5py               5.623460       1.619151
                                                         2.098559       2.412091
                                                         0.820511       0.659876
                                                         0.317331      -0.314050
                                                         0.111116       0.028213
                          1       6    5pz               5.623460       1.619151
                                                         2.098559       2.412091
                                                         0.820511       0.659876
                                                         0.317331      -0.314050
                                                         0.111116       0.028213

                          1       7    4dx2              5.623460      -2.005729
                                                         2.098559       1.064556
                                                         0.820511       0.464044
                                                         0.317331       0.120863
                                                         0.111116       0.003311
                          1       7    4dxy              5.623460      -3.474025
                                                         2.098559       1.843865
                                                         0.820511       0.803748
                                                         0.317331       0.209340
                                                         0.111116       0.005735
                          1       7    4dxz              5.623460      -3.474025
                                                         2.098559       1.843865
                                                         0.820511       0.803748
                                                         0.317331       0.209340
                                                         0.111116       0.005735
                          1       7    4dy2              5.623460      -2.005729
                                                         2.098559       1.064556
                                                         0.820511       0.464044
                                                         0.317331       0.120863
                                                         0.111116       0.003311
                          1       7    4dyz              5.623460      -3.474025
                                                         2.098559       1.843865
                                                         0.820511       0.803748
                                                         0.317331       0.209340
                                                         0.111116       0.005735
                          1       7    4dz2              5.623460      -2.005729
                                                         2.098559       1.064556
                                                         0.820511       0.464044
                                                         0.317331       0.120863
                                                         0.111116       0.003311

       Atomic covalent radius [Angstrom]:                                  0.770

       Atomic van der Waals radius [Angstrom]:                             1.700

     GTH Potential information for                                   GTH-SCAN-q4

       Description:                       Goedecker-Teter-Hutter pseudopotential
                                           Goedecker et al., PRB 54, 1703 (1996)
                                          Hartwigsen et al., PRB 58, 3641 (1998)
                                                      Krack, TCA 114, 145 (2005)

       Gaussian exponent of the core charge distribution:               4.454624
       Electronic configuration (s p d ...):                       2   2   0   0

       Parameters of the local part of the GTH pseudopotential:

                          rloc        C1          C2          C3          C4
                        0.335027   -8.822616    1.299117

       Parameters of the non-local part of the GTH pseudopotential:

                   l      r(l)      h(i,j,l)

                   0    0.303798    9.625763

  3. Atomic kind: H                                     Number of atoms:       5

     Orbital Basis Set                                   TZVP-MOLOPT-SCAN-GTH-q1

       Number of orbital shell sets:                                           1
       Number of orbital shells:                                               4
       Number of primitive Cartesian functions:                                5
       Number of Cartesian basis functions:                                    6
       Number of spherical basis functions:                                    6
       Norm type:                                                              2

       Normalised Cartesian orbitals:

                        Set   Shell   Orbital            Exponent    Coefficient

                          1       1    2s                9.168765       0.095357
                                                         2.161194       0.125778
                                                         0.619868       0.162183
                                                         0.161316       0.074849
                                                         0.412255       0.090962

                          1       2    3s                9.168765      -0.435739
                                                         2.161194      -0.868971
                                                         0.619868      -0.406683
                                                         0.161316      -0.142964
                                                         0.412255       0.978336

                          1       3    4s                9.168765       0.385896
                                                         2.161194       1.113624
                                                         0.619868       0.043366
                                                         0.161316      -0.067676
                                                         0.412255       0.053421

                          1       4    3px               9.168765      -1.788640
                                                         2.161194       0.906920
                                                         0.619868       0.273605
                                                         0.161316       0.091389
                                                         0.412255       0.008094
                          1       4    3py               9.168765      -1.788640
                                                         2.161194       0.906920
                                                         0.619868       0.273605
                                                         0.161316       0.091389
                                                         0.412255       0.008094
                          1       4    3pz               9.168765      -1.788640
                                                         2.161194       0.906920
                                                         0.619868       0.273605
                                                         0.161316       0.091389
                                                         0.412255       0.008094

       Atomic covalent radius [Angstrom]:                                  0.320

       Atomic van der Waals radius [Angstrom]:                             1.090

     GTH Potential information for                                   GTH-SCAN-q1

       Description:                       Goedecker-Teter-Hutter pseudopotential
                                           Goedecker et al., PRB 54, 1703 (1996)
                                          Hartwigsen et al., PRB 58, 3641 (1998)
                                                      Krack, TCA 114, 145 (2005)

       Gaussian exponent of the core charge distribution:              12.429142
       Electronic configuration (s p d ...):                       1   0   0   0

       Parameters of the local part of the GTH pseudopotential:

                          rloc        C1          C2          C3          C4
                        0.200569   -4.177243    0.723816


 MOLECULE KIND INFORMATION


 All atoms are their own molecule, skipping detailed information


 TOTAL NUMBERS AND MAXIMUM NUMBERS

  Total number of            - Atomic kinds:                                   3
                             - Atoms:                                         12
                             - Shell sets:                                    12
                             - Shells:                                        69
                             - Primitive Cartesian functions:                 59
                             - Cartesian basis functions:                    156
                             - Spherical basis functions:                    149

  Maximum angular momentum of- Orbital basis functions:                        2
                             - Local part of the GTH pseudopotential:          2
                             - Non-local part of the GTH pseudopotential:      4


 MODULE QUICKSTEP: ATOMIC COORDINATES IN ANGSTROM

   Atom Kind Element         X             Y             Z       Z(eff)     Mass
      1    1 Br   35     15.000000     17.500000     20.867155   7.0000  79.9040
      2    2 C     6     15.000000     17.500000     18.975355   4.0000  12.0107
      3    2 C     6     15.000000     18.707100     18.297205   4.0000  12.0107
      4    2 C     6     15.000000     18.699660     16.909985   4.0000  12.0107
      5    2 C     6     15.000000     17.500000     16.214985   4.0000  12.0107
      6    2 C     6     15.000000     16.300340     16.909985   4.0000  12.0107
      7    2 C     6     15.000000     16.292900     18.297205   4.0000  12.0107
      8    3 H     1     15.000000     19.639030     18.845435   1.0000   1.0079
      9    3 H     1     15.000000     19.639500     16.373025   1.0000   1.0079
     10    3 H     1     15.000000     17.500000     15.132845   1.0000   1.0079
     11    3 H     1     15.000000     15.360500     16.373025   1.0000   1.0079
     12    3 H     1     15.000000     15.360970     18.845435   1.0000   1.0079



 SCF PARAMETERS         Density guess:                                    ATOMIC
                        --------------------------------------------------------
                        max_scf:                                             100
                        max_scf_history:                                       0
                        max_diis:                                              4
                        --------------------------------------------------------
                        eps_scf:                                        1.00E-05
                        eps_scf_history:                                0.00E+00
                        eps_diis:                                       1.00E-01
                        eps_eigval:                                     1.00E-05
                        --------------------------------------------------------
                        level_shift [a.u.]:                             0.000000
                        --------------------------------------------------------
                        Mixing method:                           DIRECT_P_MIXING
                        --------------------------------------------------------
                        No outer SCF

 PW_GRID| Information for grid number                                          1
 PW_GRID| Grid distributed over                                    16 processors
 PW_GRID| Real space group dimensions                                    16    1
 PW_GRID| the grid is blocked:                                                NO
 PW_GRID| Cutoff [a.u.]                                                    500.0
 PW_GRID| spherical cutoff:                                                   NO
 PW_GRID|   Bounds   1           -288     287                Points:         576
 PW_GRID|   Bounds   2           -337     337                Points:         675
 PW_GRID|   Bounds   3           -360     359                Points:         720
 PW_GRID| Volume element (a.u.^3)  0.9112E-03     Volume (a.u.^3)    255087.0472
 PW_GRID| Grid span                                                    FULLSPACE
 PW_GRID|   Distribution                         Average         Max         Min
 PW_GRID|   G-Vectors                         17496000.0    17496000    17496000
 PW_GRID|   G-Rays                               30375.0       30375       30375
 PW_GRID|   Real Space Points                 17496000.0    17496000    17496000

 PW_GRID| Information for grid number                                          2
 PW_GRID| Number of the reference grid                                         1
 PW_GRID| Grid distributed over                                    16 processors
 PW_GRID| Real space group dimensions                                    16    1
 PW_GRID| the grid is blocked:                                                NO
 PW_GRID| Cutoff [a.u.]                                                    166.7
 PW_GRID| spherical cutoff:                                                   NO
 PW_GRID|   Bounds   1           -180     179                Points:         360
 PW_GRID|   Bounds   2           -200     199                Points:         400
 PW_GRID|   Bounds   3           -200     199                Points:         400
 PW_GRID| Volume element (a.u.^3)  0.4429E-02     Volume (a.u.^3)    255087.0472
 PW_GRID| Grid span                                                    FULLSPACE
 PW_GRID|   Distribution                         Average         Max         Min
 PW_GRID|   G-Vectors                          3600000.0     3601080     3599280
 PW_GRID|   G-Rays                               10000.0       10003        9998
 PW_GRID|   Real Space Points                  3600000.0     3680000     3520000

 PW_GRID| Information for grid number                                          3
 PW_GRID| Number of the reference grid                                         1
 PW_GRID| Grid distributed over                                    16 processors
 PW_GRID| Real space group dimensions                                    16    1
 PW_GRID| the grid is blocked:                                                NO
 PW_GRID| Cutoff [a.u.]                                                     55.6
 PW_GRID| spherical cutoff:                                                   NO
 PW_GRID|   Bounds   1            -96      95                Points:         192
 PW_GRID|   Bounds   2           -112     112                Points:         225
 PW_GRID|   Bounds   3           -120     119                Points:         240
 PW_GRID| Volume element (a.u.^3)  0.2460E-01     Volume (a.u.^3)    255087.0472
 PW_GRID| Grid span                                                    FULLSPACE
 PW_GRID|   Distribution                         Average         Max         Min
 PW_GRID|   G-Vectors                           648000.0      648384      647616
 PW_GRID|   G-Rays                                3375.0        3377        3373
 PW_GRID|   Real Space Points                   648000.0      648000      648000

 PW_GRID| Information for grid number                                          4
 PW_GRID| Number of the reference grid                                         1
 PW_GRID| Grid distributed over                                    16 processors
 PW_GRID| Real space group dimensions                                    16    1
 PW_GRID| the grid is blocked:                                                NO
 PW_GRID| Cutoff [a.u.]                                                     18.5
 PW_GRID| spherical cutoff:                                                   NO
 PW_GRID|   Bounds   1            -60      59                Points:         120
 PW_GRID|   Bounds   2            -67      67                Points:         135
 PW_GRID|   Bounds   3            -67      67                Points:         135
 PW_GRID| Volume element (a.u.^3)  0.1166         Volume (a.u.^3)    255087.0472
 PW_GRID| Grid span                                                    FULLSPACE
 PW_GRID|   Distribution                         Average         Max         Min
 PW_GRID|   G-Vectors                           136687.5      137040      136560
 PW_GRID|   G-Rays                                1139.1        1142        1138
 PW_GRID|   Real Space Points                   136687.5      145800      127575

 POISSON| Solver                                                        ANALYTIC
 POISSON| Periodicity                                                       NONE

 RS_GRID| Information for grid number                                          1
 RS_GRID|   Bounds   1           -288     287                Points:         576
 RS_GRID|   Bounds   2           -337     337                Points:         675
 RS_GRID|   Bounds   3           -360     359                Points:         720
 RS_GRID| Real space distribution over                                  4 groups
 RS_GRID| Real space distribution along direction                              2
 RS_GRID| Border size                                                         39
 RS_GRID| Real space distribution over                                  4 groups
 RS_GRID| Real space distribution along direction                              3
 RS_GRID| Border size                                                         39
 RS_GRID|   Distribution                         Average         Max         Min
 RS_GRID|   Planes                                 246.8         247         246
 RS_GRID|   Distribution                         Average         Max         Min
 RS_GRID|   Planes                                 258.0         258         258

 RS_GRID| Information for grid number                                          2
 RS_GRID|   Bounds   1           -180     179                Points:         360
 RS_GRID|   Bounds   2           -200     199                Points:         400
 RS_GRID|   Bounds   3           -200     199                Points:         400
 RS_GRID| Real space distribution over                                  4 groups
 RS_GRID| Real space distribution along direction                              2
 RS_GRID| Border size                                                         27
 RS_GRID| Real space distribution over                                  4 groups
 RS_GRID| Real space distribution along direction                              3
 RS_GRID| Border size                                                         27
 RS_GRID|   Distribution                         Average         Max         Min
 RS_GRID|   Planes                                 154.0         154         154
 RS_GRID|   Distribution                         Average         Max         Min
 RS_GRID|   Planes                                 154.0         154         154

 RS_GRID| Information for grid number                                          3
 RS_GRID|   Bounds   1            -96      95                Points:         192
 RS_GRID|   Bounds   2           -112     112                Points:         225
 RS_GRID|   Bounds   3           -120     119                Points:         240
 RS_GRID| Real space fully replicated
 RS_GRID| Group size                                                           1

 RS_GRID| Information for grid number                                          4
 RS_GRID|   Bounds   1            -60      59                Points:         120
 RS_GRID|   Bounds   2            -67      67                Points:         135
 RS_GRID|   Bounds   3            -67      67                Points:         135
 RS_GRID| Real space fully replicated
 RS_GRID| Group size                                                           1

 Extrapolation method: initial_guess

 Atomic guess: The first density matrix is obtained in terms of atomic orbitals
               and electronic configurations assigned to each atomic kind

 Guess for atomic kind: Br

 Electronic structure
    Total number of core electrons                                         28.00
    Total number of valence electrons                                       7.00
    Total number of electrons                                              35.00
    Multiplicity                                                   not specified
    S   [  2.00  2.00  2.00] 2.00
    P   [  6.00  6.00] 5.00
    D   [ 10.00]


 *******************************************************************************
                  Iteration          Convergence                     Energy [au]
 *******************************************************************************
                          1        0.584503                     -13.156959725005
                          2        0.400993                     -13.210718972493
                          3        0.181918E-01                 -13.267314316599
                          4        0.341529E-03                 -13.267411006957
                          5        0.522942E-05                 -13.267411023854
                          6        0.245601E-05                 -13.267411023861
                          7        0.501257E-08                 -13.267411023863

 Energy components [Hartree]           Total Energy ::          -13.267411023863
                                        Band Energy ::           -2.791555535040
                                     Kinetic Energy ::            4.431971621065
                                   Potential Energy ::          -17.699382644928
                                      Virial (-V/T) ::            3.993568587128
                                        Core Energy ::          -22.027819330356
                                          XC Energy ::           -2.473774577839
                                     Coulomb Energy ::           11.234182884332
                       Total Pseudopotential Energy ::          -26.525730417025
                       Local Pseudopotential Energy ::          -28.295090440051
                    Nonlocal Pseudopotential Energy ::            1.769360023027
                                        Confinement ::            0.659394656034

 Orbital energies  State     L     Occupation   Energy[a.u.]          Energy[eV]

                       1     0          2.000      -0.717550          -19.525528

                       1     1          5.000      -0.271291           -7.382207


 Total Electron Density at R=0:                                         0.000527

 Guess for atomic kind: C

 Electronic structure
    Total number of core electrons                                          2.00
    Total number of valence electrons                                       4.00
    Total number of electrons                                               6.00
    Multiplicity                                                   not specified
    S   [  2.00] 2.00
    P      2.00


 *******************************************************************************
                  Iteration          Convergence                     Energy [au]
 *******************************************************************************
                          1        0.124377                      -5.269415449983
                          2        0.880091E-01                  -5.274432015385
                          3        0.424095E-03                  -5.279419090830
                          4        0.118108E-03                  -5.279419164687
                          5        0.144057E-06                  -5.279419172500

 Energy components [Hartree]           Total Energy ::           -5.279419172500
                                        Band Energy ::           -1.313739125276
                                     Kinetic Energy ::            3.405940495234
                                   Potential Energy ::           -8.685359667734
                                      Virial (-V/T) ::            2.550062069460
                                        Core Energy ::           -8.290068838701
                                          XC Energy ::           -1.377173731606
                                     Coulomb Energy ::            4.387823397806
                       Total Pseudopotential Energy ::          -11.730281123094
                       Local Pseudopotential Energy ::          -12.376528803709
                    Nonlocal Pseudopotential Energy ::            0.646247680614
                                        Confinement ::            0.342717891594

 Orbital energies  State     L     Occupation   Energy[a.u.]          Energy[eV]

                       1     0          2.000      -0.480601          -13.077809

                       1     1          2.000      -0.176269           -4.796521


 Total Electron Density at R=0:                                         0.000000

 Guess for atomic kind: H

 Electronic structure
    Total number of core electrons                                          0.00
    Total number of valence electrons                                       1.00
    Total number of electrons                                               1.00
    Multiplicity                                                   not specified
    S      1.00


 *******************************************************************************
                  Iteration          Convergence                     Energy [au]
 *******************************************************************************
                          1        0.364523E-02                  -0.422484553466
                          2        0.146100E-03                  -0.422490428911
                          3        0.266755E-04                  -0.422490480125
                          4        0.362968E-08                  -0.422490480723

 Energy components [Hartree]           Total Energy ::           -0.422490480723
                                        Band Energy ::           -0.192735382727
                                     Kinetic Energy ::            0.477952444388
                                   Potential Energy ::           -0.900442925111
                                      Virial (-V/T) ::            1.883959242566
                                        Core Energy ::           -0.479166166213
                                          XC Energy ::           -0.248560768168
                                     Coulomb Energy ::            0.305236453657
                       Total Pseudopotential Energy ::           -0.975131101124
                       Local Pseudopotential Energy ::           -0.975131101124
                    Nonlocal Pseudopotential Energy ::            0.000000000000
                                        Confinement ::            0.180124905236

 Orbital energies  State     L     Occupation   Energy[a.u.]          Energy[eV]

                       1     0          1.000      -0.192735           -5.244596


 Total Electron Density at R=0:                                         0.249202
 Re-scaling the density matrix to get the right number of electrons
                  # Electrons              Trace(P)               Scaling factor
                           36                36.000                        1.000

 Number of electrons:                                                         36
 Number of occupied orbitals:                                                 18
 Number of molecular orbitals:                                                18

 Number of orbital functions:                                                149
 Number of independent orbital functions:                                    149


 SCF WAVEFUNCTION OPTIMIZATION

  Step     Update method      Time    Convergence         Total energy    Change
  ------------------------------------------------------------------------------
     1 P_Mix/Diag. 0.40E+00   21.3     1.01852296       -50.0862946076 -5.01E+01
     2 P_Mix/Diag. 0.40E+00   26.6     0.52436306       -50.2532101683 -1.67E-01
     3 P_Mix/Diag. 0.40E+00   26.8     0.31885001       -50.3390896465 -8.59E-02
     4 P_Mix/Diag. 0.40E+00   26.7     0.17124123       -50.3900576253 -5.10E-02
     5 P_Mix/Diag. 0.40E+00   27.1     0.10234497       -50.4210490956 -3.10E-02
     6 P_Mix/Diag. 0.40E+00   27.3     0.06297904       -50.4398546968 -1.88E-02
     7 DIIS/Diag.  0.25E-02   27.2     0.03903286       -50.4512333723 -1.14E-02
     8 DIIS/Diag.  0.40E-02   26.9     0.00209663       -50.4684942050 -1.73E-02
     9 DIIS/Diag.  0.50E-02   26.2     0.00565487       -50.4684839845  1.02E-05
    10 DIIS/Diag.  0.21E-02   27.3     0.00226344       -50.4685003386 -1.64E-05
    11 DIIS/Diag.  0.78E-03   26.1     0.00100697       -50.4685040538 -3.72E-06
    12 DIIS/Diag.  0.31E-03   26.1     0.00026243       -50.4685050795 -1.03E-06
    13 DIIS/Diag.  0.16E-03   26.0     0.00011681       -50.4685051732 -9.37E-08
    14 DIIS/Diag.  0.10E-03   26.2     0.00010226       -50.4685051871 -1.39E-08
    15 DIIS/Diag.  0.34E-04   26.2     0.00005246       -50.4685051907 -3.55E-09
    16 DIIS/Diag.  0.28E-04   26.1     0.00002698       -50.4685051893  1.41E-09
    17 DIIS/Diag.  0.15E-04   26.1     0.00001091       -50.4685051866  2.72E-09
    18 DIIS/Diag.  0.79E-05   26.1     0.00000500       -50.4685051960 -9.46E-09

  *** SCF run converged in    18 steps ***


  Electronic density on regular grids:        -36.0000000001       -0.0000000001
  Core density on regular grids:               35.9999999966       -0.0000000034
  Total charge density on r-space grids:       -0.0000000035
  Total charge density g-space grids:          -0.0000000035

  Overlap energy of the core charge distribution:               0.00000280849972
  Self energy of the core charge distribution:               -115.86934133347204
  Core Hamiltonian energy:                                     33.71248649567080
  Hartree energy:                                              46.43652927709945
  Exchange-correlation energy:                                -14.74818244381487

  Total energy:                                               -50.46850519601692

 MO| EIGENVALUES AND OCCUPATION NUMBERS
 MO|
 MO|  Index      Eigenvalue [a.u.]        Eigenvalue [eV]             Occupation
 MO|      1              -0.849698             -23.121464               2.000000
 MO|      2              -0.791555             -21.539299               2.000000
 MO|      3              -0.730730             -19.884176               2.000000
 MO|      4              -0.706791             -19.232772               2.000000
 MO|      5              -0.592496             -16.122631               2.000000
 MO|      6              -0.575632             -15.663753               2.000000
 MO|      7              -0.503237             -13.693778               2.000000
 MO|      8              -0.442045             -12.028659               2.000000
 MO|      9              -0.439549             -11.960749               2.000000
 MO|     10              -0.410639             -11.174053               2.000000
 MO|     11              -0.401949             -10.937575               2.000000
 MO|     12              -0.378429             -10.297568               2.000000
 MO|     13              -0.336654              -9.160830               2.000000
 MO|     14              -0.334173              -9.093302               2.000000
 MO|     15              -0.303530              -8.259463               2.000000
 MO|     16              -0.270777              -7.368216               2.000000
 MO|     17              -0.261910              -7.126925               2.000000
 MO|     18              -0.235781              -6.415916               2.000000
 MO| Sum:                                                              36.000000
 MO| E(Fermi):           -0.235781 a.u.         -6.415916 eV


 !-----------------------------------------------------------------------------!
                     Mulliken Population Analysis

 #  Atom  Element  Kind  Atomic population                           Net charge
       1     Br       1          7.171251                             -0.171251
       2     C        2          3.877194                              0.122806
       3     C        2          4.019852                             -0.019852
       4     C        2          3.959208                              0.040792
       5     C        2          3.989753                              0.010247
       6     C        2          3.959208                              0.040792
       7     C        2          4.019852                             -0.019852
       8     H        3          0.994433                              0.005567
       9     H        3          1.004255                             -0.004255
      10     H        3          1.006306                             -0.006306
      11     H        3          1.004255                             -0.004255
      12     H        3          0.994433                              0.005567
 # Total charge                             36.000000                 -0.000000

 !-----------------------------------------------------------------------------!

 !-----------------------------------------------------------------------------!
                           Hirshfeld Charges

  #Atom  Element  Kind  Ref Charge     Population                    Net charge
      1       Br     1       7.000          7.431                        -0.431
      2       C      2       4.000          3.774                         0.226
      3       C      2       4.000          4.368                        -0.368
      4       C      2       4.000          4.427                        -0.427
      5       C      2       4.000          4.438                        -0.438
      6       C      2       4.000          4.427                        -0.427
      7       C      2       4.000          4.368                        -0.368
      8       H      3       1.000          0.546                         0.454
      9       H      3       1.000          0.551                         0.449
     10       H      3       1.000          0.552                         0.448
     11       H      3       1.000          0.551                         0.449
     12       H      3       1.000          0.546                         0.454

  Total Charge                                                            0.020
 !-----------------------------------------------------------------------------!

 ENERGY| Total FORCE_EVAL ( QS ) energy [hartree]            -50.468505196016920

 -------------------------------------------------------------------------------
 -                                                                             -
 -                                DBCSR STATISTICS                             -
 -                                                                             -
 -------------------------------------------------------------------------------
 COUNTER                                    TOTAL       BLAS       SMM       ACC
 flops     6 x     6 x    18               349920     100.0%      0.0%      0.0%     
 flops    17 x     6 x    18              1123632     100.0%      0.0%      0.0%     
 flops     6 x    17 x    18              1189728     100.0%      0.0%      0.0%     
 flops    17 x    17 x    18              5243616     100.0%      0.0%      0.0%     
 flops inhomo. stacks                           0       0.0%      0.0%      0.0%
 flops total                         7.906896E+06     100.0%      0.0%      0.0%
 flops max/rank                    717.336000E+03     100.0%      0.0%      0.0%
 matmuls inhomo. stacks                         0       0.0%      0.0%      0.0%
 matmuls total                               1404     100.0%      0.0%      0.0%
 number of processed stacks                   756     100.0%      0.0%      0.0%
 average stack size                                     1.9       0.0       0.0
 marketing flops                    14.386248E+06
 -------------------------------------------------------------------------------
 # multiplications                             18
 max memory usage/rank               9.923748E+09
 # max total images/rank                        1
 # max 3D layers                                1
 # MPI messages exchanged                    1728
 MPI messages size (bytes):
  total size                         2.317248E+06
  min size                           0.000000E+00
  max size                           5.760000E+03
  average size                       1.341000E+03
 MPI breakdown and total messages size (bytes):
             size <=      128                1296                        0
       128 < size <=     8192                 432                  2317248
      8192 < size <=    32768                   0                        0
     32768 < size <=   131072                   0                        0
    131072 < size <=  4194304                   0                        0
   4194304 < size <= 16777216                   0                        0
  16777216 < size                               0                        0
 -------------------------------------------------------------------------------
 -                                                                             -
 -                      DBCSR MESSAGE PASSING PERFORMANCE                      -
 -                                                                             -
 -------------------------------------------------------------------------------
 ROUTINE             CALLS      AVE VOLUME [Bytes]
 MP_Bcast                5                     12.
 MP_Allreduce          117                     12.
 MP_Alltoall           594                   4866.
 MP_ISend              288                    672.
 MP_IRecv              288                     56.
 -------------------------------------------------------------------------------

 -------------------------------------------------------------------------------
 -                                                                             -
 -                                GRID STATISTICS                              -
 -                                                                             -
 -------------------------------------------------------------------------------
 LP    KERNEL             BACKEND                              COUNT     PERCENT
 3     collocate ortho    CPU                                   1216      22.99%
 3     integrate ortho    CPU                                   1152      21.78%
 4     collocate ortho    CPU                                    950      17.96%
 4     integrate ortho    CPU                                    900      17.01%
 2     collocate ortho    CPU                                    532      10.06%
 2     integrate ortho    CPU                                    504       9.53%
 0     collocate general  CPU                                     24       0.45%
 0     integrate general  CPU                                     12       0.23%
 -------------------------------------------------------------------------------

 -------------------------------------------------------------------------------
 -                                                                             -
 -                          OFFLOAD MEMPOOL STATISTICS                         -
 -                                                                             -
 -------------------------------------------------------------------------------
 Memory consumption                Number of allocations  Used [MiB]  Size [MiB]
 Host                                                  6         441     7431160
 -------------------------------------------------------------------------------

 MEMORY| Estimated peak process memory [MiB]                                7325

 -------------------------------------------------------------------------------
 ----                             MULTIGRID INFO                            ----
 -------------------------------------------------------------------------------
 count for grid        1:         110247          cutoff [a.u.]          500.00
 count for grid        2:         130624          cutoff [a.u.]          166.67
 count for grid        3:         142167          cutoff [a.u.]           55.56
 count for grid        4:          64746          cutoff [a.u.]           18.52
 total gridlevel count  :         447784

 -------------------------------------------------------------------------------
 -                                                                             -
 -                         MESSAGE PASSING PERFORMANCE                         -
 -                                                                             -
 -------------------------------------------------------------------------------

 ROUTINE             CALLS      AVE VOLUME [Bytes]
 MP_Group                4
 MP_Bcast              134                 245187.
 MP_Allreduce          349                  33895.
 MP_Sync                22
 MP_Alltoall           237              398619975.
 MP_SendRecv           570                3175200.
 MP_ISendRecv          540                3175200.
 MP_Wait              2311
 MP_comm_split          18
 MP_ISend             1540                9273204.
 MP_IRecv             1540                9273350.
 -------------------------------------------------------------------------------


 -------------------------------------------------------------------------------
 -                                                                             -
 -                           R E F E R E N C E S                               -
 -                                                                             -
 -------------------------------------------------------------------------------
 
 CP2K version 2026.2, the CP2K developers group (2026).
 CP2K is freely available from https://www.cp2k.org/ .
 
 M. Iannuzzi, J. Wilhelm, F. Stein, A. Bussy, H. Elgabarty, D. Golze, A. Hehn, 
 M. Graml, S. Marek, B. Sertcan Gökmen, C. Schran, H. Forbert, R. Z. 
 Khaliullin, A. Kozhevnikov, M. Taillefumier, R. Meli, V. V. Rybkin, M. Brehm, 
 R. Schade, O. Schütt, J. V. Pototschnig, H. Mirhosseini, A. Knüpfer, D. Marx, 
 M. Krack, J. Hutter, T. D. Kühne.
 J. Phys. Chem. B 130, 1237-1310 (2026).
 The CP2K Program Package Made Simple.
 https://doi.org/10.1021/acs.jpcb.5c05851

 T. D. Kühne, M. Iannuzzi, M. Del Ben, V. V. Rybkin, P. Seewald, F. Stein, T. 
 Laino, R. Z. Khaliullin, O. Schütt, F. Schiffmann, D. Golze, J. Wilhelm, S. 
 Chulkov, M. H. Bani-Hashemian, V. Weber, U. Borstnik, M. Taillefumier, A. S. 
 Jakobovits, A. Lazzaro, H. Pabst, T. Müller, R. Schade, M. Guidon, S. 
 Andermatt, N. Holmberg, G. K. Schenter, A. Hehn, A. Bussy, F. Belleflamme, G. 
 Tabacchi, A. Glöß, M. Lass, I. Bethune, C. J. Mundy, C. Plessl, M. Watkins, 
 J. VandeVondele, M. Krack, J. Hutter.
 J. Chem. Phys. 152, 194103 (2020).
 CP2K: An electronic structure and molecular dynamics software package - 
 Quickstep: Efficient and accurate electronic structure calculations.
 https://doi.org/10.1063/5.0007045

 O. Schuett, P. Messmer, J. Hutter, J. VandeVondele.
 Electronic Structure Calculations on Graphics Processing Units, 173-190 (2016).
 GPU-Accelerated Sparse Matrix-Matrix Multiplication for Linear Scaling Density 
 Functional Theory.
 https://doi.org/10.1002/9781118670712.ch8

 U. Borstnik, J. VandeVondele, V. Weber, J. Hutter.
 Parallel Comput. 40, 47-58 (2014).
 Sparse matrix multiplication: The distributed block-compressed sparse row 
 library.
 https://doi.org/10.1016/j.parco.2014.03.012

 J. VandeVondele, J. Hutter.
 J. Chem. Phys. 127, 114105 (2007).
 Gaussian basis sets for accurate calculations on molecular systems in gas and 
 condensed phases.
 https://doi.org/10.1063/1.2770708

 J. VandeVondele, M. Krack, F. Mohamed, M. Parrinello, T. Chassaing, J. Hutter.
 Comput. Phys. Commun. 167, 103-128 (2005).
 QUICKSTEP: Fast and accurate density functional calculations using a mixed 
 Gaussian and plane waves approach.
 https://doi.org/10.1016/j.cpc.2004.12.014

 M. Krack.
 Theor. Chem. Acc. 114, 145-152 (2005).
 Pseudopotentials for H to Kr optimized for gradient-corrected 
 exchange-correlation functionals.
 https://doi.org/10.1007/s00214-005-0655-y

 M. Frigo, S. G. Johnson.
 Proc. IEEE 93, 216-231 (2005).
 The design and implementation of FFTW3.
 https://doi.org/10.1109/JPROC.2004.840301

 C. Hartwigsen, S. Goedecker, J. Hutter.
 Phys. Rev. B 58, 3641-3662 (1998).
 Relativistic separable dual-space Gaussian pseudopotentials from H to Rn.
 https://doi.org/10.1103/PhysRevB.58.3641

 G. Lippert, J. Hutter, M. Parrinello.
 Mol. Phys. 92, 477-487 (1997).
 A hybrid Gaussian and plane wave density functional scheme.
 https://doi.org/10.1080/002689797170220

 S. Goedecker, M. Teter, J. Hutter.
 Phys. Rev. B 54, 1703-1710 (1996).
 Separable dual-space Gaussian pseudopotentials.
 https://doi.org/10.1103/PhysRevB.54.1703


 -------------------------------------------------------------------------------
 -                                                                             -
 -                                T I M I N G                                  -
 -                                                                             -
 -------------------------------------------------------------------------------
 SUBROUTINE                       CALLS  ASD         SELF TIME        TOTAL TIME
                                MAXIMUM       AVERAGE  MAXIMUM  AVERAGE  MAXIMUM
 CP2K                                 1  1.0    0.058    0.066  493.503  493.504
 qs_energies                          1  2.0    0.000    0.000  487.923  487.924
 scf_env_do_scf                       1  3.0    0.000    0.000  477.805  477.805
 scf_env_do_scf_inner_loop           18  4.0    0.001    0.001  477.805  477.805
 qs_ks_update_qs_env                 18  5.0    0.000    0.000  378.351  378.352
 rebuild_ks_matrix                   18  6.0    0.000    0.000  378.349  378.350
 qs_ks_build_kohn_sham_matrix        18  7.0  252.277  252.310  378.349  378.350
 fft_wrap_pw1pw2                    186  9.2    0.008    0.010  163.470  164.032
 fft_wrap_pw1pw2_500                 75  9.7    5.096    5.314  145.836  148.233
 fft3d_ps                           186 11.2   57.971   59.079  105.699  111.964
 qs_rho_update_rho_low               19  5.0    0.000    0.000  105.159  105.159
 calculate_rho_elec                  19  6.0    1.429    1.442  105.159  105.159
 density_rs2pw                       19  7.0    0.003    0.003   97.739   98.049
 sum_up_and_integrate                18  8.0    0.000    0.000   61.022   61.024
 integrate_v_rspace                  18  9.0    0.000    0.001   61.022   61.024
 potential_pw2rs                     18 10.0    0.080    0.087   60.896   60.921
 pw_gather_p                         95 10.5   32.000   33.948   32.000   33.948
 pw_poisson_solve                    18  8.0    0.001    0.001   28.802   29.647
 yz_to_x                             95 11.5   18.278   18.801   26.022   28.486
 x_to_yz                             91 12.8   13.023   13.211   21.696   25.035
 mp_alltoall_z22v                   186 13.2   16.416   21.876   16.416   21.876
 pw_poisson_set                      19  8.8    0.002    0.003   18.014   18.859
 fft_wrap_pw1pw2_170                 37 10.5    0.175    0.204   14.867   18.284
 pw_scatter_p                        91 11.8   14.251   17.568   14.251   17.568
 pw_copy                            180 10.0   13.343   13.678   13.343   13.678
 transfer_pw2rs                      73 10.9    0.002    0.003   13.529   13.567
 transfer_rs2pw                      78  8.0    0.003    0.004   12.964   13.091
 pw_derive                           54 10.0   11.566   12.209   11.566   12.209
 transfer_pw2rs_500                  19 11.8    5.332    5.601    9.685    9.959
 -------------------------------------------------------------------------------

 The number of warnings for this run is : 0
 
 -------------------------------------------------------------------------------
  **** **** ******  **  PROGRAM ENDED AT                 2026-08-13 13:28:31.721
 ***** ** ***  *** **   PROGRAM RAN ON            eb3791e2ef3243b6944400b65b9622
 **    ****   ******    PROGRAM RAN BY                                 <unknown>
 ***** **    ** ** **   PROGRAM PROCESS ID                                  1231
  **** **  *******  **  PROGRAM STOPPED IN                    /tmp/cp2k_8kahvwa6
