&GLOBAL
  PRINT_LEVEL MEDIUM
  PROJECT_NAME 034911f26fd5dbcfcbfc808ad2625ae928e1c2d7
  RUN_TYPE ENERGY
&END GLOBAL
&FORCE_EVAL
  METHOD Quickstep
  &DFT
    BASIS_SET_FILE_NAME BASIS_MOLOPT_UZH
    POTENTIAL_FILE_NAME POTENTIAL_UZH
    CHARGE 0
    MULTIPLICITY 1
    UKS FALSE
    &MGRID
      CUTOFF 1000
      REL_CUTOFF 60
      NGRIDS 4
    &END MGRID
    &POISSON
      PERIODIC NONE
      POISSON_SOLVER ANALYTIC
    &END POISSON
    &QS
      EPS_DEFAULT 1e-10
    &END QS
    &SCF
      EPS_SCF 1e-05
      MAX_SCF 100
      SCF_GUESS ATOMIC
      &DIAGONALIZATION
      &END DIAGONALIZATION
      &MIXING
        METHOD DIRECT_P_MIXING
        ALPHA 0.4
        NMIXING 2
      &END MIXING
    &END SCF
    &XC
      &XC_FUNCTIONAL
        &GAUXC
          FUNCTIONAL PBE
          MODEL aug-s0-funv2-cpu.fun
          GRID FINE
          PRUNING_SCHEME ROBUST
          RADIAL_QUADRATURE MURAKNOWLES
        &END GAUXC
      &END XC_FUNCTIONAL
    &END XC
    &PRINT
      &MO
        ENERGIES T
        OCCNUMS  T
        &EACH
          QS_SCF 0
        &END
      &END
    &END
  &END DFT
  &SUBSYS
    &CELL
      ABC 45.0000 37.0000 34.0000
      ALPHA_BETA_GAMMA 90.0000 90.0000 90.0000
      PERIODIC NONE
    &END CELL
    &TOPOLOGY
      &CENTER_COORDINATES
      &END
    &END TOPOLOGY
    &COORD
      H        6.4924000016       -1.9615099988       -0.2673300026
      C        6.4835300020       -0.8838599983       -0.4453799991
      H        6.4458299993       -0.6979600018       -1.5217700021
      H        7.4192199976       -0.4800400004       -0.0480300022
      C        5.3250599991       -0.2725599985        0.3265599981
      O        5.2044800024       -0.4183199985        1.5376999984
      N        4.4463600025        0.4627700005       -0.4230699990
      H        4.5263600025        0.4774799998       -1.4304699996
      C        3.2496599995        1.0730100001        0.1430399974
      H        3.2604000003        0.8013900002        1.2019199975
      C        3.2541399979        2.5964600023       -0.0194199993
      H        3.2383999975        2.8630899987       -1.0793700010
      H        2.3711799978        3.0379700014        0.4535199987
      H        4.1472000013        3.0198900005        0.4465700022
      C        2.0373799982        0.4630400026       -0.5797300017
      O        1.8679400006        0.6461699997       -1.7814100015
      N        1.2272200023       -0.3212399997        0.1850299974
      H        1.3662299977       -0.3585000021        1.1866800008
      C       -0.0057899977       -0.9105300005       -0.3171700025
      H       -0.0925099980       -0.6142400025       -1.3651200009
      C        0.0333999986       -2.4357799990       -0.2130099990
      H        0.8664399978       -2.8147000025       -0.8224700019
      H        0.2140800006       -2.7079300016        0.8358399975
      O       -1.2275199981       -2.9100300017       -0.6667999998
      H       -1.2936499988       -3.8485300023       -0.4495900007
      C       -1.1606800004       -0.3578099974        0.5356299976
      O       -1.2001299974       -0.5943499986        1.7415199989
      N       -2.0358799977        0.4564500000       -0.1064699997
      H       -2.0069800004        0.5290999984       -1.1144300021
      C       -3.1909600014        1.0557999983        0.5602000024
      H       -3.1462300012        0.7036999976        1.5943100005
      C       -3.1348100025        2.5851000016        0.5125699999
      H       -3.1885299985        2.9292099979       -0.5226399988
      H       -3.9803199991        3.0172600004        1.0581200011
      H       -2.2067100009        2.9438100024        0.9660899987
      C       -4.4513799998        0.5456900003       -0.1583399975
      O       -4.6748299984        0.8640399992       -1.3230600013
      N       -5.2546800016       -0.2719500001        0.5737199986
      H       -4.9467499994       -0.5434400023        1.4958000008
      C       -6.4489199974       -0.8912500004        0.0237000004
      H       -6.3207999980       -1.9729500004       -0.0950999976
      H       -7.3154400015       -0.7050700004        0.6666200001
      H       -6.6234899975       -0.4473799979       -0.9568400022
    &END COORD
    &KIND C
      BASIS_SET TZVP-MOLOPT-SCAN-GTH-q4
      POTENTIAL GTH-SCAN-q4
    &END KIND
    &KIND H
      BASIS_SET TZVP-MOLOPT-SCAN-GTH-q1
      POTENTIAL GTH-SCAN-q1
    &END KIND
    &KIND N
      BASIS_SET TZVP-MOLOPT-SCAN-GTH-q5
      POTENTIAL GTH-SCAN-q5
    &END KIND
    &KIND O
      BASIS_SET TZVP-MOLOPT-SCAN-GTH-q6
      POTENTIAL GTH-SCAN-q6
    &END KIND
  &END SUBSYS
&END FORCE_EVAL

================================================================================
=== END OF CP2K INPUT / START OF CP2K OUTPUT ===
================================================================================

 DBCSR| CPU Multiplication driver                                           BLAS (U)
 DBCSR| Multrec recursion limit                                              512 (U)
 DBCSR| Multiplication stack size                                           1000 (D)
 DBCSR| Maximum elements for images                                    UNLIMITED (U)
 DBCSR| Multiplicative factor virtual images                                   1 (U)
 DBCSR| Use multiplication densification                                       T (D)
 DBCSR| Multiplication size stacks                                             3 (U)
 DBCSR| Use memory pool for CPU allocation                                     F (U)
 DBCSR| Number of 3D layers                                               SINGLE (U)
 DBCSR| Use MPI memory allocation                                              F (U)
 DBCSR| Use RMA algorithm                                                      F (U)
 DBCSR| Use Communication thread                                               T (U)
 DBCSR| Communication thread load                                             87 (D)
 DBCSR| MPI: My process id                                                     0
 DBCSR| MPI: Number of processes                                              16
 DBCSR| OMP: Current number of threads                                         1
 DBCSR| OMP: Max number of threads                                             1
 DBCSR| Split modifier for TAS multiplication algorithm                  1.0E+00 (U)


  **** **** ******  **  PROGRAM STARTED AT               2026-08-13 11:51:02.933
 ***** ** ***  *** **   PROGRAM STARTED ON        eb3791e2ef3243b6944400b65b9622
 **    ****   ******    PROGRAM STARTED BY                             <unknown>
 ***** **    ** ** **   PROGRAM PROCESS ID                                   674
  **** **  *******  **  PROGRAM STARTED IN                    /tmp/cp2k_9463ccbb

 CP2K| version string:                                       CP2K version 2026.2
 CP2K| source code revision number:                                  git:c92cc08
 CP2K| cp2kflags: omp libint fftw3 libxc gauxc gauxc_mpi gauxc_onedft gauxc_host
 CP2K|             parallel scalapack mpi_f08 spglib sirius libtorch hdf5
 CP2K| is freely available from                            https://www.cp2k.org/
 CP2K| Program compiled at                                   2026-08-13 02:05:42
 CP2K| Program compiled on                                                      
 CP2K| Program compiled for                                               x86_64
 CP2K| Data directory path                             /opt/cp2k/share/cp2k/data
 CP2K| Input file name                                            cp2k_input.inp

 GLOBAL| Force Environment number                                              1
 GLOBAL| Basis set file name                                    BASIS_MOLOPT_UZH
 GLOBAL| Potential file name                                       POTENTIAL_UZH
 GLOBAL| MM Potential file name                                     MM_POTENTIAL
 GLOBAL| Coordinate file name                                      __STD_INPUT__
 GLOBAL| Method name                                                        CP2K
 GLOBAL| Project name                   034911f26fd5dbcfcbfc808ad2625ae928e1c2d7
 GLOBAL| Run type                                                         ENERGY
 GLOBAL| FFT library                                                       FFTW3
 GLOBAL| Diagonalization library                                       ScaLAPACK
 GLOBAL| Cholesky decomposition library                                ScaLAPACK
 GLOBAL| DGEMM library                                                      BLAS
 GLOBAL| Direct generalized diagonalization requested                          F
 GLOBAL| Orthonormality check for eigenvectors                          DISABLED
 GLOBAL| Matrix multiplication library                                 ScaLAPACK
 GLOBAL| All-to-all communication in single precision                          F
 GLOBAL| FFTs using library dependent lengths                                  F
 GLOBAL| Grid backend                                                       AUTO
 GLOBAL| Global print level                                               MEDIUM
 GLOBAL| MPI I/O enabled                                                       T
 GLOBAL| Total number of message passing processes                            16
 GLOBAL| Number of distributed systems (nodes)                                 1
 GLOBAL| Number of threads for this process                                    1
 GLOBAL| This output is from process                                           0
 GLOBAL| OpenMP stack size per thread (OMP_STACKSIZE)                        16M
 GLOBAL| CPU model name                          AMD EPYC 9V74 80-Core Processor
 GLOBAL| CPUID                                                              1002

 MEMORY| system memory details [Kb]
 MEMORY|                        rank 0           min           max       average
 MEMORY| MemTotal            263924008     263924008     263924008     263924008
 MEMORY| MemFree             238670272     238670272     238670272     238670272
 MEMORY| Buffers                357008        357008        357008        357008
 MEMORY| Cached               18094820      18094820      18094820      18094820
 MEMORY| Slab                  1471668       1471668       1471668       1471668
 MEMORY| SReclaimable          1133508       1133508       1133508       1133508
 MEMORY| MemLikelyFree       258255608     258255608     258255608     258255608


 *** Fundamental physical constants (SI units) ***

 *** Literature: B. J. Mohr and B. N. Taylor,
 ***             CODATA recommended values of the fundamental physical
 ***             constants: 2006, Web Version 5.1
 ***             http://physics.nist.gov/constants

 Speed of light in vacuum [m/s]                             2.99792458000000E+08
 Magnetic constant or permeability of vacuum [N/A**2]       1.25663706143592E-06
 Electric constant or permittivity of vacuum [F/m]          8.85418781762039E-12
 Planck constant (h) [J*s]                                  6.62606896000000E-34
 Planck constant (h-bar) [J*s]                              1.05457162825177E-34
 Elementary charge [C]                                      1.60217648700000E-19
 Electron mass [kg]                                         9.10938215000000E-31
 Electron g factor [ ]                                     -2.00231930436220E+00
 Proton mass [kg]                                           1.67262163700000E-27
 Fine-structure constant                                    7.29735253760000E-03
 Rydberg constant [1/m]                                     1.09737315685270E+07
 Avogadro constant [1/mol]                                  6.02214179000000E+23
 Boltzmann constant [J/K]                                   1.38065040000000E-23
 Atomic mass unit [kg]                                      1.66053878200000E-27
 Bohr radius [m]                                            5.29177208590000E-11

 *** Conversion factors ***

 [u] -> [a.u.]                                              1.82288848426455E+03
 [Angstrom] -> [Bohr] = [a.u.]                              1.88972613288564E+00
 [a.u.] = [Bohr] -> [Angstrom]                              5.29177208590000E-01
 [a.u.] -> [s]                                              2.41888432650478E-17
 [a.u.] -> [fs]                                             2.41888432650478E-02
 [a.u.] -> [J]                                              4.35974393937059E-18
 [a.u.] -> [N]                                              8.23872205491840E-08
 [a.u.] -> [K]                                              3.15774647902944E+05
 [a.u.] -> [kJ/mol]                                         2.62549961709828E+03
 [a.u.] -> [kcal/mol]                                       6.27509468713739E+02
 [a.u.] -> [Pa]                                             2.94210107994716E+13
 [a.u.] -> [bar]                                            2.94210107994716E+08
 [a.u.] -> [atm]                                            2.90362800883016E+08
 [a.u.] -> [eV]                                             2.72113838565563E+01
 [a.u.] -> [Hz]                                             6.57968392072181E+15
 [a.u.] -> [1/cm] (wave numbers)                            2.19474631370540E+05
 [a.u./Bohr**2] -> [1/cm]                                   5.14048714338585E+03
 

 CELL| Volume [angstrom^3]:                                         56610.000000
 CELL| Vector a [angstrom]:      45.000     0.000     0.000   |a| =    45.000000
 CELL| Vector b [angstrom]:       0.000    37.000     0.000   |b| =    37.000000
 CELL| Vector c [angstrom]:       0.000     0.000    34.000   |c| =    34.000000
 CELL| Angle (b,c), alpha [degree]:                                    90.000000
 CELL| Angle (a,c), beta  [degree]:                                    90.000000
 CELL| Angle (a,b), gamma [degree]:                                    90.000000
 CELL| Numerically orthorhombic:                                             YES
 CELL| Periodicity                                                          NONE

 CELL_REF| Volume [angstrom^3]:                                     56610.000000
 CELL_REF| Vector a [angstrom    45.000     0.000     0.000   |a| =    45.000000
 CELL_REF| Vector b [angstrom     0.000    37.000     0.000   |b| =    37.000000
 CELL_REF| Vector c [angstrom     0.000     0.000    34.000   |c| =    34.000000
 CELL_REF| Angle (b,c), alpha [degree]:                                90.000000
 CELL_REF| Angle (a,c), beta  [degree]:                                90.000000
 CELL_REF| Angle (a,b), gamma [degree]:                                90.000000
 CELL_REF| Numerically orthorhombic:                                         YES
 CELL_REF| Periodicity                                                      NONE

 GENERATE|  Preliminary Number of Bonds generated:                             0
 GENERATE|  Achieved consistency in connectivity generation.

 *******************************************************************************
 *******************************************************************************
 **                                                                           **
 **     #####                         ##              ##                      **
 **    ##   ##            ##          ##              ##                      **
 **   ##     ##                       ##            ######                    **
 **   ##     ##  ##   ##  ##   #####  ##  ##   ####   ##    #####    #####    **
 **   ##     ##  ##   ##  ##  ##      ## ##   ##      ##   ##   ##  ##   ##   **
 **   ##  ## ##  ##   ##  ##  ##      ####     ###    ##   ######   ######    **
 **    ##  ###   ##   ##  ##  ##      ## ##      ##   ##   ##       ##        **
 **     #######   #####   ##   #####  ##  ##  ####    ##    #####   ##        **
 **           ##                                                    ##        **
 **                                                                           **
 **                                                ... make the atoms dance   **
 **                                                                           **
 **            Copyright (C) by CP2K developers group (2000-2026)             **
 **                      J. Chem. Phys. 152, 194103 (2020)                    **
 **                                                                           **
 *******************************************************************************

 DFT| Spin restricted Kohn-Sham (RKS) calculation                            RKS
 DFT| Multiplicity                                                             1
 DFT| Number of spin states                                                    1
 DFT| Charge                                                                   0
 DFT| Self-interaction correction (SIC)                                       NO
 DFT| Cutoffs: density                                              1.000000E-10
 DFT|          gradient                                             1.000000E-10
 DFT|          tau                                                  1.000000E-10
 DFT|          cutoff_smoothing_range                               0.000000E+00
 DFT| XC density smoothing                                                  NONE
 DFT| XC derivatives                                                          PW

 FUNCTIONAL| GAUXC:
 FUNCTIONAL| Functional computed by GauXC Skala model aug-s0-funv2-cpu.fun      


 QS| Method:                                                                 GPW
 QS| Density plane wave grid type                        NON-SPHERICAL FULLSPACE
 QS| Number of grid levels:                                                    4
 QS| Density cutoff [a.u.]:                                                500.0
 QS| Multi grid cutoff [a.u.]: 1) grid level                               500.0
 QS|                           2) grid level                               166.7
 QS|                           3) grid level                                55.6
 QS|                           4) grid level                                18.5
 QS| Grid level progression factor:                                          3.0
 QS| Relative density cutoff [a.u.]:                                        30.0
 QS| Interaction thresholds: eps_pgf_orb:                                1.0E-05
 QS|                         eps_filter_matrix:                          0.0E+00
 QS|                         eps_core_charge:                            1.0E-12
 QS|                         eps_rho_gspace:                             1.0E-10
 QS|                         eps_rho_rspace:                             1.0E-10
 QS|                         eps_gvg_rspace:                             1.0E-05
 QS|                         eps_ppl:                                    1.0E-02
 QS|                         eps_ppnl:                                   1.0E-07


 ATOMIC KIND INFORMATION

  1. Atomic kind: H                                     Number of atoms:      22

     Orbital Basis Set                                   TZVP-MOLOPT-SCAN-GTH-q1

       Number of orbital shell sets:                                           1
       Number of orbital shells:                                               4
       Number of primitive Cartesian functions:                                5
       Number of Cartesian basis functions:                                    6
       Number of spherical basis functions:                                    6
       Norm type:                                                              2

       Normalised Cartesian orbitals:

                        Set   Shell   Orbital            Exponent    Coefficient

                          1       1    2s                9.168765       0.095357
                                                         2.161194       0.125778
                                                         0.619868       0.162183
                                                         0.161316       0.074849
                                                         0.412255       0.090962

                          1       2    3s                9.168765      -0.435739
                                                         2.161194      -0.868971
                                                         0.619868      -0.406683
                                                         0.161316      -0.142964
                                                         0.412255       0.978336

                          1       3    4s                9.168765       0.385896
                                                         2.161194       1.113624
                                                         0.619868       0.043366
                                                         0.161316      -0.067676
                                                         0.412255       0.053421

                          1       4    3px               9.168765      -1.788640
                                                         2.161194       0.906920
                                                         0.619868       0.273605
                                                         0.161316       0.091389
                                                         0.412255       0.008094
                          1       4    3py               9.168765      -1.788640
                                                         2.161194       0.906920
                                                         0.619868       0.273605
                                                         0.161316       0.091389
                                                         0.412255       0.008094
                          1       4    3pz               9.168765      -1.788640
                                                         2.161194       0.906920
                                                         0.619868       0.273605
                                                         0.161316       0.091389
                                                         0.412255       0.008094

       Atomic covalent radius [Angstrom]:                                  0.320

       Atomic van der Waals radius [Angstrom]:                             1.090

     GTH Potential information for                                   GTH-SCAN-q1

       Description:                       Goedecker-Teter-Hutter pseudopotential
                                           Goedecker et al., PRB 54, 1703 (1996)
                                          Hartwigsen et al., PRB 58, 3641 (1998)
                                                      Krack, TCA 114, 145 (2005)

       Gaussian exponent of the core charge distribution:              12.429142
       Electronic configuration (s p d ...):                       1   0   0   0

       Parameters of the local part of the GTH pseudopotential:

                          rloc        C1          C2          C3          C4
                        0.200569   -4.177243    0.723816

  2. Atomic kind: C                                     Number of atoms:      12

     Orbital Basis Set                                   TZVP-MOLOPT-SCAN-GTH-q4

       Number of orbital shell sets:                                           1
       Number of orbital shells:                                               7
       Number of primitive Cartesian functions:                                5
       Number of Cartesian basis functions:                                   18
       Number of spherical basis functions:                                   17
       Norm type:                                                              2

       Normalised Cartesian orbitals:

                        Set   Shell   Orbital            Exponent    Coefficient

                          1       1    2s                5.623460      -0.349209
                                                         2.098559      -0.253875
                                                         0.820511       0.248209
                                                         0.317331       0.216287
                                                         0.111116       0.012850

                          1       2    3s                5.623460       0.160090
                                                         2.098559       0.144150
                                                         0.820511      -0.103023
                                                         0.317331       0.001075
                                                         0.111116       0.142208

                          1       3    4s                5.623460      -1.207693
                                                         2.098559      -1.266789
                                                         0.820511       0.734368
                                                         0.317331      -0.329587
                                                         0.111116       0.046451

                          1       4    3px               5.623460      -0.717953
                                                         2.098559      -0.559659
                                                         0.820511      -0.405261
                                                         0.317331      -0.145150
                                                         0.111116      -0.020126
                          1       4    3py               5.623460      -0.717953
                                                         2.098559      -0.559659
                                                         0.820511      -0.405261
                                                         0.317331      -0.145150
                                                         0.111116      -0.020126
                          1       4    3pz               5.623460      -0.717953
                                                         2.098559      -0.559659
                                                         0.820511      -0.405261
                                                         0.317331      -0.145150
                                                         0.111116      -0.020126

                          1       5    4px               5.623460       0.831730
                                                         2.098559       0.877901
                                                         0.820511       0.415963
                                                         0.317331       0.032156
                                                         0.111116      -0.090730
                          1       5    4py               5.623460       0.831730
                                                         2.098559       0.877901
                                                         0.820511       0.415963
                                                         0.317331       0.032156
                                                         0.111116      -0.090730
                          1       5    4pz               5.623460       0.831730
                                                         2.098559       0.877901
                                                         0.820511       0.415963
                                                         0.317331       0.032156
                                                         0.111116      -0.090730

                          1       6    5px               5.623460       1.619151
                                                         2.098559       2.412091
                                                         0.820511       0.659876
                                                         0.317331      -0.314050
                                                         0.111116       0.028213
                          1       6    5py               5.623460       1.619151
                                                         2.098559       2.412091
                                                         0.820511       0.659876
                                                         0.317331      -0.314050
                                                         0.111116       0.028213
                          1       6    5pz               5.623460       1.619151
                                                         2.098559       2.412091
                                                         0.820511       0.659876
                                                         0.317331      -0.314050
                                                         0.111116       0.028213

                          1       7    4dx2              5.623460      -2.005729
                                                         2.098559       1.064556
                                                         0.820511       0.464044
                                                         0.317331       0.120863
                                                         0.111116       0.003311
                          1       7    4dxy              5.623460      -3.474025
                                                         2.098559       1.843865
                                                         0.820511       0.803748
                                                         0.317331       0.209340
                                                         0.111116       0.005735
                          1       7    4dxz              5.623460      -3.474025
                                                         2.098559       1.843865
                                                         0.820511       0.803748
                                                         0.317331       0.209340
                                                         0.111116       0.005735
                          1       7    4dy2              5.623460      -2.005729
                                                         2.098559       1.064556
                                                         0.820511       0.464044
                                                         0.317331       0.120863
                                                         0.111116       0.003311
                          1       7    4dyz              5.623460      -3.474025
                                                         2.098559       1.843865
                                                         0.820511       0.803748
                                                         0.317331       0.209340
                                                         0.111116       0.005735
                          1       7    4dz2              5.623460      -2.005729
                                                         2.098559       1.064556
                                                         0.820511       0.464044
                                                         0.317331       0.120863
                                                         0.111116       0.003311

       Atomic covalent radius [Angstrom]:                                  0.770

       Atomic van der Waals radius [Angstrom]:                             1.700

     GTH Potential information for                                   GTH-SCAN-q4

       Description:                       Goedecker-Teter-Hutter pseudopotential
                                           Goedecker et al., PRB 54, 1703 (1996)
                                          Hartwigsen et al., PRB 58, 3641 (1998)
                                                      Krack, TCA 114, 145 (2005)

       Gaussian exponent of the core charge distribution:               4.454624
       Electronic configuration (s p d ...):                       2   2   0   0

       Parameters of the local part of the GTH pseudopotential:

                          rloc        C1          C2          C3          C4
                        0.335027   -8.822616    1.299117

       Parameters of the non-local part of the GTH pseudopotential:

                   l      r(l)      h(i,j,l)

                   0    0.303798    9.625763

  3. Atomic kind: O                                     Number of atoms:       5

     Orbital Basis Set                                   TZVP-MOLOPT-SCAN-GTH-q6

       Number of orbital shell sets:                                           1
       Number of orbital shells:                                               7
       Number of primitive Cartesian functions:                                5
       Number of Cartesian basis functions:                                   18
       Number of spherical basis functions:                                   17
       Norm type:                                                              2

       Normalised Cartesian orbitals:

                        Set   Shell   Orbital            Exponent    Coefficient

                          1       1    2s               10.257817      -0.419073
                                                         3.644287      -0.215759
                                                         1.402225       0.311285
                                                         0.522057       0.263821
                                                         0.168189       0.045116

                          1       2    3s               10.257817       0.362459
                                                         3.644287       0.180656
                                                         1.402225      -0.203664
                                                         0.522057      -0.159611
                                                         0.168189       0.244682

                          1       3    4s               10.257817      -2.413417
                                                         3.644287      -0.850901
                                                         1.402225       0.170654
                                                         0.522057      -0.131214
                                                         0.168189       0.003984

                          1       4    3px              10.257817      -1.672017
                                                         3.644287      -1.345385
                                                         1.402225      -0.751048
                                                         0.522057      -0.276645
                                                         0.168189      -0.033014
                          1       4    3py              10.257817      -1.672017
                                                         3.644287      -1.345385
                                                         1.402225      -0.751048
                                                         0.522057      -0.276645
                                                         0.168189      -0.033014
                          1       4    3pz              10.257817      -1.672017
                                                         3.644287      -1.345385
                                                         1.402225      -0.751048
                                                         0.522057      -0.276645
                                                         0.168189      -0.033014

                          1       5    4px              10.257817       1.559903
                                                         3.644287       0.989060
                                                         1.402225       0.672543
                                                         0.522057       0.141420
                                                         0.168189      -0.167208
                          1       5    4py              10.257817       1.559903
                                                         3.644287       0.989060
                                                         1.402225       0.672543
                                                         0.522057       0.141420
                                                         0.168189      -0.167208
                          1       5    4pz              10.257817       1.559903
                                                         3.644287       0.989060
                                                         1.402225       0.672543
                                                         0.522057       0.141420
                                                         0.168189      -0.167208

                          1       6    5px              10.257817       5.420840
                                                         3.644287       0.742781
                                                         1.402225       2.786765
                                                         0.522057      -0.733751
                                                         0.168189       0.023040
                          1       6    5py              10.257817       5.420840
                                                         3.644287       0.742781
                                                         1.402225       2.786765
                                                         0.522057      -0.733751
                                                         0.168189       0.023040
                          1       6    5pz              10.257817       5.420840
                                                         3.644287       0.742781
                                                         1.402225       2.786765
                                                         0.522057      -0.733751
                                                         0.168189       0.023040

                          1       7    4dx2             10.257817      -1.249026
                                                         3.644287       1.475740
                                                         1.402225       0.993741
                                                         0.522057       0.395456
                                                         0.168189      -0.006736
                          1       7    4dxy             10.257817      -2.163376
                                                         3.644287       2.556057
                                                         1.402225       1.721210
                                                         0.522057       0.684950
                                                         0.168189      -0.011667
                          1       7    4dxz             10.257817      -2.163376
                                                         3.644287       2.556057
                                                         1.402225       1.721210
                                                         0.522057       0.684950
                                                         0.168189      -0.011667
                          1       7    4dy2             10.257817      -1.249026
                                                         3.644287       1.475740
                                                         1.402225       0.993741
                                                         0.522057       0.395456
                                                         0.168189      -0.006736
                          1       7    4dyz             10.257817      -2.163376
                                                         3.644287       2.556057
                                                         1.402225       1.721210
                                                         0.522057       0.684950
                                                         0.168189      -0.011667
                          1       7    4dz2             10.257817      -1.249026
                                                         3.644287       1.475740
                                                         1.402225       0.993741
                                                         0.522057       0.395456
                                                         0.168189      -0.006736

       Atomic covalent radius [Angstrom]:                                  0.730

       Atomic van der Waals radius [Angstrom]:                             1.520

     GTH Potential information for                                   GTH-SCAN-q6

       Description:                       Goedecker-Teter-Hutter pseudopotential
                                           Goedecker et al., PRB 54, 1703 (1996)
                                          Hartwigsen et al., PRB 58, 3641 (1998)
                                                      Krack, TCA 114, 145 (2005)

       Gaussian exponent of the core charge distribution:               8.656553
       Electronic configuration (s p d ...):                       2   4   0   0

       Parameters of the local part of the GTH pseudopotential:

                          rloc        C1          C2          C3          C4
                        0.240333  -16.794986    2.452457

       Parameters of the non-local part of the GTH pseudopotential:

                   l      r(l)      h(i,j,l)

                   0    0.221500   18.441562

  4. Atomic kind: N                                     Number of atoms:       4

     Orbital Basis Set                                   TZVP-MOLOPT-SCAN-GTH-q5

       Number of orbital shell sets:                                           1
       Number of orbital shells:                                               7
       Number of primitive Cartesian functions:                                5
       Number of Cartesian basis functions:                                   18
       Number of spherical basis functions:                                   17
       Norm type:                                                              2

       Normalised Cartesian orbitals:

                        Set   Shell   Orbital            Exponent    Coefficient

                          1       1    2s                7.741240      -0.372569
                                                         2.739304      -0.219396
                                                         1.077565       0.278149
                                                         0.425476       0.232020
                                                         0.142415       0.034612

                          1       2    3s                7.741240       0.271946
                                                         2.739304       0.236866
                                                         1.077565      -0.248170
                                                         0.425476      -0.061031
                                                         0.142415       0.200154

                          1       3    4s                7.741240      -1.413950
                                                         2.739304      -2.318830
                                                         1.077565       1.978599
                                                         0.425476      -0.833623
                                                         0.142415       0.105972

                          1       4    3px               7.741240      -1.168229
                                                         2.739304      -0.942518
                                                         1.077565      -0.541668
                                                         0.425476      -0.212751
                                                         0.142415      -0.025014
                          1       4    3py               7.741240      -1.168229
                                                         2.739304      -0.942518
                                                         1.077565      -0.541668
                                                         0.425476      -0.212751
                                                         0.142415      -0.025014
                          1       4    3pz               7.741240      -1.168229
                                                         2.739304      -0.942518
                                                         1.077565      -0.541668
                                                         0.425476      -0.212751
                                                         0.142415      -0.025014

                          1       5    4px               7.741240       0.928701
                                                         2.739304       0.844788
                                                         1.077565       0.526172
                                                         0.425476       0.069589
                                                         0.142415      -0.132325
                          1       5    4py               7.741240       0.928701
                                                         2.739304       0.844788
                                                         1.077565       0.526172
                                                         0.425476       0.069589
                                                         0.142415      -0.132325
                          1       5    4pz               7.741240       0.928701
                                                         2.739304       0.844788
                                                         1.077565       0.526172
                                                         0.425476       0.069589
                                                         0.142415      -0.132325

                          1       6    5px               7.741240       1.578027
                                                         2.739304       2.303105
                                                         1.077565       1.543896
                                                         0.425476      -0.542746
                                                         0.142415       0.030053
                          1       6    5py               7.741240       1.578027
                                                         2.739304       2.303105
                                                         1.077565       1.543896
                                                         0.425476      -0.542746
                                                         0.142415       0.030053
                          1       6    5pz               7.741240       1.578027
                                                         2.739304       2.303105
                                                         1.077565       1.543896
                                                         0.425476      -0.542746
                                                         0.142415       0.030053

                          1       7    4dx2              7.741240      -0.128620
                                                         2.739304       0.958133
                                                         1.077565       0.733739
                                                         0.425476       0.247613
                                                         0.142415      -0.003923
                          1       7    4dxy              7.741240      -0.222777
                                                         2.739304       1.659536
                                                         1.077565       1.270873
                                                         0.425476       0.428878
                                                         0.142415      -0.006794
                          1       7    4dxz              7.741240      -0.222777
                                                         2.739304       1.659536
                                                         1.077565       1.270873
                                                         0.425476       0.428878
                                                         0.142415      -0.006794
                          1       7    4dy2              7.741240      -0.128620
                                                         2.739304       0.958133
                                                         1.077565       0.733739
                                                         0.425476       0.247613
                                                         0.142415      -0.003923
                          1       7    4dyz              7.741240      -0.222777
                                                         2.739304       1.659536
                                                         1.077565       1.270873
                                                         0.425476       0.428878
                                                         0.142415      -0.006794
                          1       7    4dz2              7.741240      -0.128620
                                                         2.739304       0.958133
                                                         1.077565       0.733739
                                                         0.425476       0.247613
                                                         0.142415      -0.003923

       Atomic covalent radius [Angstrom]:                                  0.750

       Atomic van der Waals radius [Angstrom]:                             1.550

     GTH Potential information for                                   GTH-SCAN-q5

       Description:                       Goedecker-Teter-Hutter pseudopotential
                                           Goedecker et al., PRB 54, 1703 (1996)
                                          Hartwigsen et al., PRB 58, 3641 (1998)
                                                      Krack, TCA 114, 145 (2005)

       Gaussian exponent of the core charge distribution:               6.165682
       Electronic configuration (s p d ...):                       2   3   0   0

       Parameters of the local part of the GTH pseudopotential:

                          rloc        C1          C2          C3          C4
                        0.284770  -12.418435    1.850749

       Parameters of the non-local part of the GTH pseudopotential:

                   l      r(l)      h(i,j,l)

                   0    0.256275   13.645095


 MOLECULE KIND INFORMATION


 All atoms are their own molecule, skipping detailed information


 TOTAL NUMBERS AND MAXIMUM NUMBERS

  Total number of            - Atomic kinds:                                   4
                             - Atoms:                                         43
                             - Shell sets:                                    43
                             - Shells:                                       235
                             - Primitive Cartesian functions:                215
                             - Cartesian basis functions:                    510
                             - Spherical basis functions:                    489

  Maximum angular momentum of- Orbital basis functions:                        2
                             - Local part of the GTH pseudopotential:          2
                             - Non-local part of the GTH pseudopotential:      0


 MODULE QUICKSTEP: ATOMIC COORDINATES IN ANGSTROM

   Atom Kind Element         X             Y             Z       Z(eff)     Mass
      1    1 H     1     28.940510     16.943770     16.752615   1.0000   1.0079
      2    2 C     6     28.931640     18.021420     16.574565   4.0000  12.0107
      3    1 H     1     28.893940     18.207320     15.498175   1.0000   1.0079
      4    1 H     1     29.867330     18.425240     16.971915   1.0000   1.0079
      5    2 C     6     27.773170     18.632720     17.346505   4.0000  12.0107
      6    3 O     8     27.652590     18.486960     18.557645   6.0000  15.9994
      7    4 N     7     26.894470     19.368050     16.596875   5.0000  14.0067
      8    1 H     1     26.974470     19.382760     15.589475   1.0000   1.0079
      9    2 C     6     25.697770     19.978290     17.162985   4.0000  12.0107
     10    1 H     1     25.708510     19.706670     18.221865   1.0000   1.0079
     11    2 C     6     25.702250     21.501740     17.000525   4.0000  12.0107
     12    1 H     1     25.686510     21.768370     15.940575   1.0000   1.0079
     13    1 H     1     24.819290     21.943250     17.473465   1.0000   1.0079
     14    1 H     1     26.595310     21.925170     17.466515   1.0000   1.0079
     15    2 C     6     24.485490     19.368320     16.440215   4.0000  12.0107
     16    3 O     8     24.316050     19.551450     15.238535   6.0000  15.9994
     17    4 N     7     23.675330     18.584040     17.204975   5.0000  14.0067
     18    1 H     1     23.814340     18.546780     18.206625   1.0000   1.0079
     19    2 C     6     22.442320     17.994750     16.702775   4.0000  12.0107
     20    1 H     1     22.355600     18.291040     15.654825   1.0000   1.0079
     21    2 C     6     22.481510     16.469500     16.806935   4.0000  12.0107
     22    1 H     1     23.314550     16.090580     16.197475   1.0000   1.0079
     23    1 H     1     22.662190     16.197350     17.855785   1.0000   1.0079
     24    3 O     8     21.220590     15.995250     16.353145   6.0000  15.9994
     25    1 H     1     21.154460     15.056750     16.570355   1.0000   1.0079
     26    2 C     6     21.287430     18.547470     17.555575   4.0000  12.0107
     27    3 O     8     21.247980     18.310930     18.761465   6.0000  15.9994
     28    4 N     7     20.412230     19.361730     16.913475   5.0000  14.0067
     29    1 H     1     20.441130     19.434380     15.905515   1.0000   1.0079
     30    2 C     6     19.257150     19.961080     17.580145   4.0000  12.0107
     31    1 H     1     19.301880     19.608980     18.614255   1.0000   1.0079
     32    2 C     6     19.313300     21.490380     17.532515   4.0000  12.0107
     33    1 H     1     19.259580     21.834490     16.497305   1.0000   1.0079
     34    1 H     1     18.467790     21.922540     18.078065   1.0000   1.0079
     35    1 H     1     20.241400     21.849090     17.986035   1.0000   1.0079
     36    2 C     6     17.996730     19.450970     16.861605   4.0000  12.0107
     37    3 O     8     17.773280     19.769320     15.696885   6.0000  15.9994
     38    4 N     7     17.193430     18.633330     17.593665   5.0000  14.0067
     39    1 H     1     17.501360     18.361840     18.515745   1.0000   1.0079
     40    2 C     6     15.999190     18.014030     17.043645   4.0000  12.0107
     41    1 H     1     16.127310     16.932330     16.924845   1.0000   1.0079
     42    1 H     1     15.132670     18.200210     17.686565   1.0000   1.0079
     43    1 H     1     15.824620     18.457900     16.063105   1.0000   1.0079



 SCF PARAMETERS         Density guess:                                    ATOMIC
                        --------------------------------------------------------
                        max_scf:                                             100
                        max_scf_history:                                       0
                        max_diis:                                              4
                        --------------------------------------------------------
                        eps_scf:                                        1.00E-05
                        eps_scf_history:                                0.00E+00
                        eps_diis:                                       1.00E-01
                        eps_eigval:                                     1.00E-05
                        --------------------------------------------------------
                        level_shift [a.u.]:                             0.000000
                        --------------------------------------------------------
                        Mixing method:                           DIRECT_P_MIXING
                        --------------------------------------------------------
                        No outer SCF

 PW_GRID| Information for grid number                                          1
 PW_GRID| Grid distributed over                                    16 processors
 PW_GRID| Real space group dimensions                                    16    1
 PW_GRID| the grid is blocked:                                                NO
 PW_GRID| Cutoff [a.u.]                                                    500.0
 PW_GRID| spherical cutoff:                                                   NO
 PW_GRID|   Bounds   1           -432     431                Points:         864
 PW_GRID|   Bounds   2           -360     359                Points:         720
 PW_GRID|   Bounds   3           -324     323                Points:         648
 PW_GRID| Volume element (a.u.^3)  0.9477E-03     Volume (a.u.^3)    382023.2207
 PW_GRID| Grid span                                                    FULLSPACE
 PW_GRID|   Distribution                         Average         Max         Min
 PW_GRID|   G-Vectors                         25194240.0    25194240    25194240
 PW_GRID|   G-Rays                               29160.0       29160       29160
 PW_GRID|   Real Space Points                 25194240.0    25194240    25194240

 PW_GRID| Information for grid number                                          2
 PW_GRID| Number of the reference grid                                         1
 PW_GRID| Grid distributed over                                    16 processors
 PW_GRID| Real space group dimensions                                    16    1
 PW_GRID| the grid is blocked:                                                NO
 PW_GRID| Cutoff [a.u.]                                                    166.7
 PW_GRID| spherical cutoff:                                                   NO
 PW_GRID|   Bounds   1           -250     249                Points:         500
 PW_GRID|   Bounds   2           -216     215                Points:         432
 PW_GRID|   Bounds   3           -187     187                Points:         375
 PW_GRID| Volume element (a.u.^3)  0.4716E-02     Volume (a.u.^3)    382023.2207
 PW_GRID| Grid span                                                    FULLSPACE
 PW_GRID|   Distribution                         Average         Max         Min
 PW_GRID|   G-Vectors                          5062500.0     5063500     5061500
 PW_GRID|   G-Rays                               10125.0       10127       10123
 PW_GRID|   Real Space Points                  5062500.0     5184000     5022000

 PW_GRID| Information for grid number                                          3
 PW_GRID| Number of the reference grid                                         1
 PW_GRID| Grid distributed over                                    16 processors
 PW_GRID| Real space group dimensions                                    16    1
 PW_GRID| the grid is blocked:                                                NO
 PW_GRID| Cutoff [a.u.]                                                     55.6
 PW_GRID| spherical cutoff:                                                   NO
 PW_GRID|   Bounds   1           -144     143                Points:         288
 PW_GRID|   Bounds   2           -120     119                Points:         240
 PW_GRID|   Bounds   3           -108     107                Points:         216
 PW_GRID| Volume element (a.u.^3)  0.2559E-01     Volume (a.u.^3)    382023.2207
 PW_GRID| Grid span                                                    FULLSPACE
 PW_GRID|   Distribution                         Average         Max         Min
 PW_GRID|   G-Vectors                           933120.0      933984      931968
 PW_GRID|   G-Rays                                3240.0        3243        3236
 PW_GRID|   Real Space Points                   933120.0      933120      933120

 PW_GRID| Information for grid number                                          4
 PW_GRID| Number of the reference grid                                         1
 PW_GRID| Grid distributed over                                    16 processors
 PW_GRID| Real space group dimensions                                    16    1
 PW_GRID| the grid is blocked:                                                NO
 PW_GRID| Cutoff [a.u.]                                                     18.5
 PW_GRID| spherical cutoff:                                                   NO
 PW_GRID|   Bounds   1            -90      89                Points:         180
 PW_GRID|   Bounds   2            -67      67                Points:         135
 PW_GRID|   Bounds   3            -62      62                Points:         125
 PW_GRID| Volume element (a.u.^3)  0.1258         Volume (a.u.^3)    382023.2207
 PW_GRID| Grid span                                                    FULLSPACE
 PW_GRID|   Distribution                         Average         Max         Min
 PW_GRID|   G-Vectors                           189843.8      190260      189360
 PW_GRID|   G-Rays                                1054.7        1057        1052
 PW_GRID|   Real Space Points                   189843.8      202500      185625

 POISSON| Solver                                                        ANALYTIC
 POISSON| Periodicity                                                       NONE

 RS_GRID| Information for grid number                                          1
 RS_GRID|   Bounds   1           -432     431                Points:         864
 RS_GRID|   Bounds   2           -360     359                Points:         720
 RS_GRID|   Bounds   3           -324     323                Points:         648
 RS_GRID| Real space distribution over                                  4 groups
 RS_GRID| Real space distribution along direction                              1
 RS_GRID| Border size                                                         27
 RS_GRID| Real space distribution over                                  4 groups
 RS_GRID| Real space distribution along direction                              2
 RS_GRID| Border size                                                         27
 RS_GRID|   Distribution                         Average         Max         Min
 RS_GRID|   Planes                                 270.0         270         270
 RS_GRID|   Distribution                         Average         Max         Min
 RS_GRID|   Planes                                 234.0         234         234

 RS_GRID| Information for grid number                                          2
 RS_GRID|   Bounds   1           -250     249                Points:         500
 RS_GRID|   Bounds   2           -216     215                Points:         432
 RS_GRID|   Bounds   3           -187     187                Points:         375
 RS_GRID| Real space distribution over                                  4 groups
 RS_GRID| Real space distribution along direction                              1
 RS_GRID| Border size                                                         27
 RS_GRID| Real space distribution over                                  4 groups
 RS_GRID| Real space distribution along direction                              2
 RS_GRID| Border size                                                         27
 RS_GRID|   Distribution                         Average         Max         Min
 RS_GRID|   Planes                                 179.0         179         179
 RS_GRID|   Distribution                         Average         Max         Min
 RS_GRID|   Planes                                 162.0         162         162

 RS_GRID| Information for grid number                                          3
 RS_GRID|   Bounds   1           -144     143                Points:         288
 RS_GRID|   Bounds   2           -120     119                Points:         240
 RS_GRID|   Bounds   3           -108     107                Points:         216
 RS_GRID| Real space fully replicated
 RS_GRID| Group size                                                           1

 RS_GRID| Information for grid number                                          4
 RS_GRID|   Bounds   1            -90      89                Points:         180
 RS_GRID|   Bounds   2            -67      67                Points:         135
 RS_GRID|   Bounds   3            -62      62                Points:         125
 RS_GRID| Real space fully replicated
 RS_GRID| Group size                                                           1

 Extrapolation method: initial_guess

 Atomic guess: The first density matrix is obtained in terms of atomic orbitals
               and electronic configurations assigned to each atomic kind

 Guess for atomic kind: H

 Electronic structure
    Total number of core electrons                                          0.00
    Total number of valence electrons                                       1.00
    Total number of electrons                                               1.00
    Multiplicity                                                   not specified
    S      1.00


 *******************************************************************************
                  Iteration          Convergence                     Energy [au]
 *******************************************************************************
                          1        0.364523E-02                  -0.422484553466
                          2        0.146100E-03                  -0.422490428911
                          3        0.266755E-04                  -0.422490480125
                          4        0.362968E-08                  -0.422490480723

 Energy components [Hartree]           Total Energy ::           -0.422490480723
                                        Band Energy ::           -0.192735382727
                                     Kinetic Energy ::            0.477952444388
                                   Potential Energy ::           -0.900442925111
                                      Virial (-V/T) ::            1.883959242566
                                        Core Energy ::           -0.479166166213
                                          XC Energy ::           -0.248560768168
                                     Coulomb Energy ::            0.305236453657
                       Total Pseudopotential Energy ::           -0.975131101124
                       Local Pseudopotential Energy ::           -0.975131101124
                    Nonlocal Pseudopotential Energy ::            0.000000000000
                                        Confinement ::            0.180124905236

 Orbital energies  State     L     Occupation   Energy[a.u.]          Energy[eV]

                       1     0          1.000      -0.192735           -5.244596


 Total Electron Density at R=0:                                         0.249202

 Guess for atomic kind: C

 Electronic structure
    Total number of core electrons                                          2.00
    Total number of valence electrons                                       4.00
    Total number of electrons                                               6.00
    Multiplicity                                                   not specified
    S   [  2.00] 2.00
    P      2.00


 *******************************************************************************
                  Iteration          Convergence                     Energy [au]
 *******************************************************************************
                          1        0.124377                      -5.269415449983
                          2        0.880091E-01                  -5.274432015385
                          3        0.424095E-03                  -5.279419090830
                          4        0.118108E-03                  -5.279419164687
                          5        0.144057E-06                  -5.279419172500

 Energy components [Hartree]           Total Energy ::           -5.279419172500
                                        Band Energy ::           -1.313739125276
                                     Kinetic Energy ::            3.405940495234
                                   Potential Energy ::           -8.685359667734
                                      Virial (-V/T) ::            2.550062069460
                                        Core Energy ::           -8.290068838701
                                          XC Energy ::           -1.377173731606
                                     Coulomb Energy ::            4.387823397806
                       Total Pseudopotential Energy ::          -11.730281123094
                       Local Pseudopotential Energy ::          -12.376528803709
                    Nonlocal Pseudopotential Energy ::            0.646247680614
                                        Confinement ::            0.342717891594

 Orbital energies  State     L     Occupation   Energy[a.u.]          Energy[eV]

                       1     0          2.000      -0.480601          -13.077809

                       1     1          2.000      -0.176269           -4.796521


 Total Electron Density at R=0:                                         0.000000

 Guess for atomic kind: O

 Electronic structure
    Total number of core electrons                                          2.00
    Total number of valence electrons                                       6.00
    Total number of electrons                                               8.00
    Multiplicity                                                   not specified
    S   [  2.00] 2.00
    P      4.00


 *******************************************************************************
                  Iteration          Convergence                     Energy [au]
 *******************************************************************************
                          1        0.767843                     -15.548688912140
                          2        0.707350                     -15.552891087148
                          3        0.233352E-01                 -15.638471141341
                          4        0.140601E-02                 -15.638569711398
                          5        0.207920E-04                 -15.638570020034
                          6        0.225984E-06                 -15.638570020103

 Energy components [Hartree]           Total Energy ::          -15.638570020103
                                        Band Energy ::           -2.987115069665
                                     Kinetic Energy ::           11.758429295155
                                   Potential Energy ::          -27.396999315258
                                      Virial (-V/T) ::            2.329988013497
                                        Core Energy ::          -26.117692585696
                                          XC Energy ::           -3.153357461230
                                     Coulomb Energy ::           13.632480026823
                       Total Pseudopotential Energy ::          -37.911237752663
                       Local Pseudopotential Energy ::          -39.187422590466
                    Nonlocal Pseudopotential Energy ::            1.276184837802
                                        Confinement ::            0.351158718120

 Orbital energies  State     L     Occupation   Energy[a.u.]          Energy[eV]

                       1     0          2.000      -0.854976          -23.265087

                       1     1          4.000      -0.319291           -8.688340


 Total Electron Density at R=0:                                         0.000001

 Guess for atomic kind: N

 Electronic structure
    Total number of core electrons                                          2.00
    Total number of valence electrons                                       5.00
    Total number of electrons                                               7.00
    Multiplicity                                                   not specified
    S   [  2.00] 2.00
    P      3.00


 *******************************************************************************
                  Iteration          Convergence                     Energy [au]
 *******************************************************************************
                          1        0.346146                      -9.510631084718
                          2        0.293961                      -9.519323476596
                          3        0.462882E-02                  -9.543943533173
                          4        0.376937E-03                  -9.543951832803
                          5        0.269242E-05                  -9.543951869815
                          6        0.125879E-05                  -9.543951869817
                          7        0.339213E-08                  -9.543951869817

 Energy components [Hartree]           Total Energy ::           -9.543951869817
                                        Band Energy ::           -2.045283632630
                                     Kinetic Energy ::            6.768365898222
                                   Potential Energy ::          -16.312317768040
                                      Virial (-V/T) ::            2.410082139963
                                        Core Energy ::          -15.546390569991
                                          XC Energy ::           -2.165368606550
                                     Coulomb Energy ::            8.167807306724
                       Total Pseudopotential Energy ::          -22.351839014438
                       Local Pseudopotential Energy ::          -23.300988197283
                    Nonlocal Pseudopotential Energy ::            0.949149182846
                                        Confinement ::            0.370825462242

 Orbital energies  State     L     Occupation   Energy[a.u.]          Energy[eV]

                       1     0          2.000      -0.656585          -17.866573

                       1     1          3.000      -0.244038           -6.640617


 Total Electron Density at R=0:                                         0.000014
 Re-scaling the density matrix to get the right number of electrons
                  # Electrons              Trace(P)               Scaling factor
                          120               120.000                        1.000

 Number of electrons:                                                        120
 Number of occupied orbitals:                                                 60
 Number of molecular orbitals:                                                60

 Number of orbital functions:                                                489
 Number of independent orbital functions:                                    489


 SCF WAVEFUNCTION OPTIMIZATION

  Step     Update method      Time    Convergence         Total energy    Change
  ------------------------------------------------------------------------------
     1 P_Mix/Diag. 0.40E+00   60.2     1.31136427      -199.9047499876 -2.00E+02
     2 P_Mix/Diag. 0.40E+00   70.8     0.65639664      -200.4074943650 -5.03E-01
     3 P_Mix/Diag. 0.40E+00   72.1     0.36839031      -200.6832233174 -2.76E-01
     4 P_Mix/Diag. 0.40E+00   70.3     0.21174826      -200.8486087994 -1.65E-01
     5 P_Mix/Diag. 0.40E+00   69.0     0.12258773      -200.9488922311 -1.00E-01
     6 P_Mix/Diag. 0.40E+00   69.5     0.07109708      -201.0097360390 -6.08E-02
     7 DIIS/Diag.  0.37E-02   70.5     0.04555003      -201.0466116647 -3.69E-02
     8 DIIS/Diag.  0.26E-02   71.0     0.00200651      -201.1028179706 -5.62E-02
     9 DIIS/Diag.  0.22E-02   69.7     0.00156864      -201.1028243097 -6.34E-06
    10 DIIS/Diag.  0.17E-02   70.3     0.00362846      -201.1028486275 -2.43E-05
    11 DIIS/Diag.  0.18E-02   70.0     0.00200167      -201.1028639014 -1.53E-05
    12 DIIS/Diag.  0.18E-02   69.6     0.00121244      -201.1028683861 -4.48E-06
    13 DIIS/Diag.  0.47E-03   71.2     0.00022847      -201.1028707893 -2.40E-06
    14 DIIS/Diag.  0.18E-03   71.8     0.00014572      -201.1028709686 -1.79E-07
    15 DIIS/Diag.  0.14E-03   70.7     0.00011236      -201.1028709953 -2.66E-08
    16 DIIS/Diag.  0.73E-04   71.1     0.00003790      -201.1028710069 -1.16E-08
    17 DIIS/Diag.  0.20E-04   69.4     0.00001315      -201.1028710010  5.86E-09
    18 DIIS/Diag.  0.11E-04   72.0     0.00001376      -201.1028710081 -7.05E-09
    19 DIIS/Diag.  0.13E-04   71.1     0.00000616      -201.1028710051  2.92E-09

  *** SCF run converged in    19 steps ***


  Electronic density on regular grids:       -119.9999999995        0.0000000005
  Core density on regular grids:              119.9999999930       -0.0000000070
  Total charge density on r-space grids:       -0.0000000065
  Total charge density g-space grids:          -0.0000000065

  Overlap energy of the core charge distribution:               0.00000534598871
  Self energy of the core charge distribution:               -502.94656429018181
  Core Hamiltonian energy:                                    150.18814502917877
  Hartree energy:                                             208.19282477406358
  Exchange-correlation energy:                                -56.53728186419631

  Total energy:                                              -201.10287100514705

 MO| EIGENVALUES AND OCCUPATION NUMBERS
 MO|
 MO|  Index      Eigenvalue [a.u.]        Eigenvalue [eV]             Occupation
 MO|      1              -1.022824             -27.832458               2.000000
 MO|      2              -1.016949             -27.672583               2.000000
 MO|      3              -1.012324             -27.546728               2.000000
 MO|      4              -1.006946             -27.400382               2.000000
 MO|      5              -1.005449             -27.359660               2.000000
 MO|      6              -0.908351             -24.717476               2.000000
 MO|      7              -0.905096             -24.628910               2.000000
 MO|      8              -0.899352             -24.472613               2.000000
 MO|      9              -0.896290             -24.389286               2.000000
 MO|     10              -0.760075             -20.682680               2.000000
 MO|     11              -0.745287             -20.280293               2.000000
 MO|     12              -0.724188             -19.706152               2.000000
 MO|     13              -0.695435             -18.923745               2.000000
 MO|     14              -0.686059             -18.668610               2.000000
 MO|     15              -0.639862             -17.411522               2.000000
 MO|     16              -0.627753             -17.082036               2.000000
 MO|     17              -0.599696             -16.318567               2.000000
 MO|     18              -0.574914             -15.644216               2.000000
 MO|     19              -0.567040             -15.429944               2.000000
 MO|     20              -0.563008             -15.320223               2.000000
 MO|     21              -0.560787             -15.259798               2.000000
 MO|     22              -0.535124             -14.561475               2.000000
 MO|     23              -0.504652             -13.732273               2.000000
 MO|     24              -0.501969             -13.659261               2.000000
 MO|     25              -0.475539             -12.940079               2.000000
 MO|     26              -0.460711             -12.536580               2.000000
 MO|     27              -0.456451             -12.420672               2.000000
 MO|     28              -0.451787             -12.293762               2.000000
 MO|     29              -0.449051             -12.219303               2.000000
 MO|     30              -0.444002             -12.081911               2.000000
 MO|     31              -0.433240             -11.789069               2.000000
 MO|     32              -0.430550             -11.715853               2.000000
 MO|     33              -0.426455             -11.604418               2.000000
 MO|     34              -0.416411             -11.331130               2.000000
 MO|     35              -0.409160             -11.133810               2.000000
 MO|     36              -0.403361             -10.976011               2.000000
 MO|     37              -0.402213             -10.944767               2.000000
 MO|     38              -0.394736             -10.741322               2.000000
 MO|     39              -0.390033             -10.613343               2.000000
 MO|     40              -0.380886             -10.364432               2.000000
 MO|     41              -0.375436             -10.216133               2.000000
 MO|     42              -0.374942             -10.202698               2.000000
 MO|     43              -0.367307              -9.994940               2.000000
 MO|     44              -0.361311              -9.831763               2.000000
 MO|     45              -0.358720              -9.761261               2.000000
 MO|     46              -0.354064              -9.634575               2.000000
 MO|     47              -0.346370              -9.425207               2.000000
 MO|     48              -0.345960              -9.414041               2.000000
 MO|     49              -0.343824              -9.355923               2.000000
 MO|     50              -0.333745              -9.081661               2.000000
 MO|     51              -0.328704              -8.944495               2.000000
 MO|     52              -0.267714              -7.284865               2.000000
 MO|     53              -0.263638              -7.173963               2.000000
 MO|     54              -0.259024              -7.048414               2.000000
 MO|     55              -0.256652              -6.983851               2.000000
 MO|     56              -0.246416              -6.705331               2.000000
 MO|     57              -0.238379              -6.486634               2.000000
 MO|     58              -0.236247              -6.428610               2.000000
 MO|     59              -0.233777              -6.361395               2.000000
 MO|     60              -0.230274              -6.266064               2.000000
 MO| Sum:                                                             120.000000
 MO| E(Fermi):           -0.230274 a.u.         -6.266064 eV


 !-----------------------------------------------------------------------------!
                     Mulliken Population Analysis

 #  Atom  Element  Kind  Atomic population                           Net charge
       1     H        1          0.981974                              0.018026
       2     C        2          3.948055                              0.051945
       3     H        1          1.006313                             -0.006313
       4     H        1          0.981408                              0.018592
       5     C        2          3.662076                              0.337924
       6     O        3          6.485889                             -0.485889
       7     N        4          5.273959                             -0.273959
       8     H        1          0.852216                              0.147784
       9     C        2          3.894472                              0.105528
      10     H        1          0.958205                              0.041795
      11     C        2          3.926410                              0.073590
      12     H        1          0.989581                              0.010419
      13     H        1          1.002577                             -0.002577
      14     H        1          0.992440                              0.007560
      15     C        2          3.617471                              0.382529
      16     O        3          6.506043                             -0.506043
      17     N        4          5.276965                             -0.276965
      18     H        1          0.842936                              0.157064
      19     C        2          3.903059                              0.096941
      20     H        1          0.953294                              0.046706
      21     C        2          3.678129                              0.321871
      22     H        1          0.998564                              0.001436
      23     H        1          0.992665                              0.007335
      24     O        3          6.485699                             -0.485699
      25     H        1          0.769572                              0.230428
      26     C        2          3.592675                              0.407325
      27     O        3          6.521411                             -0.521411
      28     N        4          5.249709                             -0.249709
      29     H        1          0.842350                              0.157650
      30     C        2          3.910649                              0.089351
      31     H        1          0.961232                              0.038768
      32     C        2          3.922878                              0.077122
      33     H        1          0.985320                              0.014680
      34     H        1          1.001259                             -0.001259
      35     H        1          0.996665                              0.003335
      36     C        2          3.640712                              0.359288
      37     O        3          6.505334                             -0.505334
      38     N        4          5.246980                             -0.246980
      39     H        1          0.858354                              0.141646
      40     C        2          3.813046                              0.186954
      41     H        1          1.001181                             -0.001181
      42     H        1          1.003270                             -0.003270
      43     H        1          0.967002                              0.032998
 # Total charge                            120.000000                 -0.000000

 !-----------------------------------------------------------------------------!

 !-----------------------------------------------------------------------------!
                           Hirshfeld Charges

  #Atom  Element  Kind  Ref Charge     Population                    Net charge
      1       H      1       1.000          0.548                         0.452
      2       C      2       4.000          5.245                        -1.245
      3       H      1       1.000          0.558                         0.442
      4       H      1       1.000          0.548                         0.452
      5       C      2       4.000          3.606                         0.394
      6       O      3       6.000          6.580                        -0.580
      7       N      4       5.000          5.638                        -0.638
      8       H      1       1.000          0.477                         0.523
      9       C      2       4.000          4.209                        -0.209
     10       H      1       1.000          0.554                         0.446
     11       C      2       4.000          5.259                        -1.259
     12       H      1       1.000          0.553                         0.447
     13       H      1       1.000          0.557                         0.443
     14       H      1       1.000          0.555                         0.445
     15       C      2       4.000          3.605                         0.395
     16       O      3       6.000          6.593                        -0.593
     17       N      4       5.000          5.623                        -0.623
     18       H      1       1.000          0.474                         0.526
     19       C      2       4.000          4.201                        -0.201
     20       H      1       1.000          0.552                         0.448
     21       C      2       4.000          4.585                        -0.585
     22       H      1       1.000          0.566                         0.434
     23       H      1       1.000          0.564                         0.436
     24       O      3       6.000          6.811                        -0.811
     25       H      1       1.000          0.439                         0.561
     26       C      2       4.000          3.596                         0.404
     27       O      3       6.000          6.605                        -0.605
     28       N      4       5.000          5.615                        -0.615
     29       H      1       1.000          0.474                         0.526
     30       C      2       4.000          4.212                        -0.212
     31       H      1       1.000          0.556                         0.444
     32       C      2       4.000          5.255                        -1.255
     33       H      1       1.000          0.552                         0.448
     34       H      1       1.000          0.557                         0.443
     35       H      1       1.000          0.556                         0.444
     36       C      2       4.000          3.608                         0.392
     37       O      3       6.000          6.590                        -0.590
     38       N      4       5.000          5.635                        -0.635
     39       H      1       1.000          0.480                         0.520
     40       C      2       4.000          5.078                        -1.078
     41       H      1       1.000          0.559                         0.441
     42       H      1       1.000          0.559                         0.441
     43       H      1       1.000          0.544                         0.456

  Total Charge                                                            0.069
 !-----------------------------------------------------------------------------!

 ENERGY| Total FORCE_EVAL ( QS ) energy [hartree]           -201.102871005147051

 -------------------------------------------------------------------------------
 -                                                                             -
 -                                DBCSR STATISTICS                             -
 -                                                                             -
 -------------------------------------------------------------------------------
 COUNTER                                    TOTAL       BLAS       SMM       ACC
 flops     6 x     6 x    28              7967232     100.0%      0.0%      0.0%     
 flops     6 x     6 x    32              9105408     100.0%      0.0%      0.0%     
 flops     6 x    17 x    28             21922656     100.0%      0.0%      0.0%     
 flops    17 x     6 x    28             22031184     100.0%      0.0%      0.0%     
 flops     6 x    17 x    32             25054464     100.0%      0.0%      0.0%     
 flops    17 x     6 x    32             25178496     100.0%      0.0%      0.0%     
 flops    17 x    17 x    28             67034128     100.0%      0.0%      0.0%     
 flops    17 x    17 x    32             76610432     100.0%      0.0%      0.0%     
 flops inhomo. stacks                           0       0.0%      0.0%      0.0%
 flops total                       254.904000E+06     100.0%      0.0%      0.0%
 flops max/rank                     18.689160E+06     100.0%      0.0%      0.0%
 matmuls inhomo. stacks                         0       0.0%      0.0%      0.0%
 matmuls total                              31578     100.0%      0.0%      0.0%
 number of processed stacks                  2432     100.0%      0.0%      0.0%
 average stack size                                    13.0       0.0       0.0
 marketing flops                   545.195968E+06
 -------------------------------------------------------------------------------
 # multiplications                             19
 max memory usage/rank              12.726010E+09
 # max total images/rank                        1
 # max 3D layers                                1
 # MPI messages exchanged                    1824
 MPI messages size (bytes):
  total size                        26.758080E+06
  min size                           0.000000E+00
  max size                          32.256000E+03
  average size                      14.670000E+03
 MPI breakdown and total messages size (bytes):
             size <=      128                 912                        0
       128 < size <=     8192                   0                        0
      8192 < size <=    32768                 912                 26758080
     32768 < size <=   131072                   0                        0
    131072 < size <=  4194304                   0                        0
   4194304 < size <= 16777216                   0                        0
  16777216 < size                               0                        0
 -------------------------------------------------------------------------------
 -                                                                             -
 -                      DBCSR MESSAGE PASSING PERFORMANCE                      -
 -                                                                             -
 -------------------------------------------------------------------------------
 ROUTINE             CALLS      AVE VOLUME [Bytes]
 MP_Bcast                9                     12.
 MP_Allreduce          130                     13.
 MP_Alltoall           627                  44673.
 MP_ISend              304                   7394.
 MP_IRecv              304                   3506.
 -------------------------------------------------------------------------------

 -------------------------------------------------------------------------------
 -                                                                             -
 -                                GRID STATISTICS                              -
 -                                                                             -
 -------------------------------------------------------------------------------
 LP    KERNEL             BACKEND                              COUNT     PERCENT
 3     collocate ortho    CPU                                   7960      23.40%
 3     integrate ortho    CPU                                   7562      22.23%
 4     collocate ortho    CPU                                   6160      18.11%
 4     integrate ortho    CPU                                   5852      17.20%
 2     collocate ortho    CPU                                   3260       9.58%
 2     integrate ortho    CPU                                   3097       9.10%
 0     collocate general  CPU                                     86       0.25%
 0     integrate general  CPU                                     43       0.13%
 -------------------------------------------------------------------------------

 -------------------------------------------------------------------------------
 -                                                                             -
 -                          OFFLOAD MEMPOOL STATISTICS                         -
 -                                                                             -
 -------------------------------------------------------------------------------
 Memory consumption                Number of allocations  Used [MiB]  Size [MiB]
 Host                                                  6         533     9771277
 -------------------------------------------------------------------------------

 MEMORY| Estimated peak process memory [MiB]                                9693

 -------------------------------------------------------------------------------
 ----                             MULTIGRID INFO                            ----
 -------------------------------------------------------------------------------
 count for grid        1:         383163          cutoff [a.u.]          500.00
 count for grid        2:         299931          cutoff [a.u.]          166.67
 count for grid        3:         232307          cutoff [a.u.]           55.56
 count for grid        4:         102927          cutoff [a.u.]           18.52
 total gridlevel count  :        1018328

 -------------------------------------------------------------------------------
 -                                                                             -
 -                         MESSAGE PASSING PERFORMANCE                         -
 -                                                                             -
 -------------------------------------------------------------------------------

 ROUTINE             CALLS      AVE VOLUME [Bytes]
 MP_Group                4
 MP_Bcast              160                 256975.
 MP_Allreduce          364                 122892.
 MP_Sync                23
 MP_Alltoall           249              573426066.
 MP_SendRecv           600                4542480.
 MP_ISendRecv          570                4542480.
 MP_Wait              1461
 MP_comm_split          19
 MP_ISend              648               26454730.
 MP_IRecv              648               26454230.
 -------------------------------------------------------------------------------


 -------------------------------------------------------------------------------
 -                                                                             -
 -                           R E F E R E N C E S                               -
 -                                                                             -
 -------------------------------------------------------------------------------
 
 CP2K version 2026.2, the CP2K developers group (2026).
 CP2K is freely available from https://www.cp2k.org/ .
 
 M. Iannuzzi, J. Wilhelm, F. Stein, A. Bussy, H. Elgabarty, D. Golze, A. Hehn, 
 M. Graml, S. Marek, B. Sertcan Gökmen, C. Schran, H. Forbert, R. Z. 
 Khaliullin, A. Kozhevnikov, M. Taillefumier, R. Meli, V. V. Rybkin, M. Brehm, 
 R. Schade, O. Schütt, J. V. Pototschnig, H. Mirhosseini, A. Knüpfer, D. Marx, 
 M. Krack, J. Hutter, T. D. Kühne.
 J. Phys. Chem. B 130, 1237-1310 (2026).
 The CP2K Program Package Made Simple.
 https://doi.org/10.1021/acs.jpcb.5c05851

 T. D. Kühne, M. Iannuzzi, M. Del Ben, V. V. Rybkin, P. Seewald, F. Stein, T. 
 Laino, R. Z. Khaliullin, O. Schütt, F. Schiffmann, D. Golze, J. Wilhelm, S. 
 Chulkov, M. H. Bani-Hashemian, V. Weber, U. Borstnik, M. Taillefumier, A. S. 
 Jakobovits, A. Lazzaro, H. Pabst, T. Müller, R. Schade, M. Guidon, S. 
 Andermatt, N. Holmberg, G. K. Schenter, A. Hehn, A. Bussy, F. Belleflamme, G. 
 Tabacchi, A. Glöß, M. Lass, I. Bethune, C. J. Mundy, C. Plessl, M. Watkins, 
 J. VandeVondele, M. Krack, J. Hutter.
 J. Chem. Phys. 152, 194103 (2020).
 CP2K: An electronic structure and molecular dynamics software package - 
 Quickstep: Efficient and accurate electronic structure calculations.
 https://doi.org/10.1063/5.0007045

 O. Schuett, P. Messmer, J. Hutter, J. VandeVondele.
 Electronic Structure Calculations on Graphics Processing Units, 173-190 (2016).
 GPU-Accelerated Sparse Matrix-Matrix Multiplication for Linear Scaling Density 
 Functional Theory.
 https://doi.org/10.1002/9781118670712.ch8

 U. Borstnik, J. VandeVondele, V. Weber, J. Hutter.
 Parallel Comput. 40, 47-58 (2014).
 Sparse matrix multiplication: The distributed block-compressed sparse row 
 library.
 https://doi.org/10.1016/j.parco.2014.03.012

 J. VandeVondele, J. Hutter.
 J. Chem. Phys. 127, 114105 (2007).
 Gaussian basis sets for accurate calculations on molecular systems in gas and 
 condensed phases.
 https://doi.org/10.1063/1.2770708

 J. VandeVondele, M. Krack, F. Mohamed, M. Parrinello, T. Chassaing, J. Hutter.
 Comput. Phys. Commun. 167, 103-128 (2005).
 QUICKSTEP: Fast and accurate density functional calculations using a mixed 
 Gaussian and plane waves approach.
 https://doi.org/10.1016/j.cpc.2004.12.014

 M. Krack.
 Theor. Chem. Acc. 114, 145-152 (2005).
 Pseudopotentials for H to Kr optimized for gradient-corrected 
 exchange-correlation functionals.
 https://doi.org/10.1007/s00214-005-0655-y

 M. Frigo, S. G. Johnson.
 Proc. IEEE 93, 216-231 (2005).
 The design and implementation of FFTW3.
 https://doi.org/10.1109/JPROC.2004.840301

 C. Hartwigsen, S. Goedecker, J. Hutter.
 Phys. Rev. B 58, 3641-3662 (1998).
 Relativistic separable dual-space Gaussian pseudopotentials from H to Rn.
 https://doi.org/10.1103/PhysRevB.58.3641

 G. Lippert, J. Hutter, M. Parrinello.
 Mol. Phys. 92, 477-487 (1997).
 A hybrid Gaussian and plane wave density functional scheme.
 https://doi.org/10.1080/002689797170220

 S. Goedecker, M. Teter, J. Hutter.
 Phys. Rev. B 54, 1703-1710 (1996).
 Separable dual-space Gaussian pseudopotentials.
 https://doi.org/10.1103/PhysRevB.54.1703


 -------------------------------------------------------------------------------
 -                                                                             -
 -                                T I M I N G                                  -
 -                                                                             -
 -------------------------------------------------------------------------------
 SUBROUTINE                       CALLS  ASD         SELF TIME        TOTAL TIME
                                MAXIMUM       AVERAGE  MAXIMUM  AVERAGE  MAXIMUM
 CP2K                                 1  1.0    0.071    0.081 1359.719 1359.719
 qs_energies                          1  2.0    0.000    0.000 1351.473 1351.474
 scf_env_do_scf                       1  3.0    0.000    0.000 1337.877 1337.877
 scf_env_do_scf_inner_loop           19  4.0    0.001    0.001 1337.876 1337.877
 qs_ks_update_qs_env                 19  5.0    0.000    0.000 1191.738 1191.738
 rebuild_ks_matrix                   19  6.0    0.000    0.000 1191.735 1191.735
 qs_ks_build_kohn_sham_matrix        19  7.0 1001.489 1001.635 1191.735 1191.735
 fft_wrap_pw1pw2                    196  9.2    0.010    0.014  245.780  247.343
 fft_wrap_pw1pw2_500                 79  9.7    7.811    8.106  215.714  220.010
 fft3d_ps                           196 11.2   86.206   90.392  158.903  166.828
 qs_rho_update_rho_low               20  5.0    0.000    0.000  153.428  153.428
 calculate_rho_elec                  20  6.0    2.164    2.181  153.428  153.428
 density_rs2pw                       20  7.0    0.003    0.003  143.191  143.679
 sum_up_and_integrate                19  8.0    0.000    0.000   93.012   93.015
 integrate_v_rspace                  19  9.0    0.001    0.001   93.012   93.015
 potential_pw2rs                     19 10.0    0.087    0.102   92.451   92.473
 pw_gather_p                        100 10.6   48.088   52.317   48.088   52.317
 pw_poisson_solve                    19  8.0    0.001    0.001   44.241   45.199
 x_to_yz                             96 12.8   19.812   20.272   35.211   40.012
 yz_to_x                            100 11.6   25.618   26.558   37.474   39.618
 mp_alltoall_z22v                   196 13.2   27.255   32.781   27.255   32.781
 pw_poisson_set                      20  8.8    0.003    0.003   27.739   28.696
 -------------------------------------------------------------------------------

 The number of warnings for this run is : 0
 
 -------------------------------------------------------------------------------
  **** **** ******  **  PROGRAM ENDED AT                 2026-08-13 12:13:44.241
 ***** ** ***  *** **   PROGRAM RAN ON            eb3791e2ef3243b6944400b65b9622
 **    ****   ******    PROGRAM RAN BY                                 <unknown>
 ***** **    ** ** **   PROGRAM PROCESS ID                                   674
  **** **  *******  **  PROGRAM STOPPED IN                    /tmp/cp2k_9463ccbb
