&GLOBAL
  PRINT_LEVEL MEDIUM
  PROJECT_NAME 58d6a215b118944918c02e6bc74a63117a8d0155
  RUN_TYPE ENERGY
&END GLOBAL
&FORCE_EVAL
  METHOD Quickstep
  &DFT
    BASIS_SET_FILE_NAME BASIS_MOLOPT_UZH
    POTENTIAL_FILE_NAME POTENTIAL_UZH
    CHARGE 0
    MULTIPLICITY 1
    UKS FALSE
    &MGRID
      CUTOFF 1000
      REL_CUTOFF 60
      NGRIDS 4
    &END MGRID
    &POISSON
      PERIODIC NONE
      POISSON_SOLVER ANALYTIC
    &END POISSON
    &QS
      EPS_DEFAULT 1e-10
    &END QS
    &SCF
      EPS_SCF 1e-05
      MAX_SCF 100
      SCF_GUESS ATOMIC
      &DIAGONALIZATION
      &END DIAGONALIZATION
      &MIXING
        METHOD DIRECT_P_MIXING
        ALPHA 0.4
        NMIXING 2
      &END MIXING
    &END SCF
    &XC
      &XC_FUNCTIONAL
        &GAUXC
          FUNCTIONAL PBE
          MODEL aug-s0-funv2-cpu.fun
          GRID FINE
          PRUNING_SCHEME ROBUST
          RADIAL_QUADRATURE MURAKNOWLES
        &END GAUXC
      &END XC_FUNCTIONAL
    &END XC
    &PRINT
      &MO
        ENERGIES T
        OCCNUMS  T
        &EACH
          QS_SCF 0
        &END
      &END
    &END
  &END DFT
  &SUBSYS
    &CELL
      ABC 30.0000 30.0000 34.0000
      ALPHA_BETA_GAMMA 90.0000 90.0000 90.0000
      PERIODIC NONE
    &END CELL
    &TOPOLOGY
      &CENTER_COORDINATES
      &END
    &END TOPOLOGY
    &COORD
      Be        0.0000000000        0.0000000000        0.0000000000
      Cl        0.0000000000        0.0000000000        1.7998400002
      Cl        0.0000000000        0.0000000000       -1.7998400002
    &END COORD
    &KIND Be
      BASIS_SET TZVP-MOLOPT-SCAN-GTH-q2
      POTENTIAL GTH-SCAN-q2
    &END KIND
    &KIND Cl
      BASIS_SET TZVP-MOLOPT-SCAN-GTH-q7
      POTENTIAL GTH-SCAN-q7
    &END KIND
  &END SUBSYS
&END FORCE_EVAL

================================================================================
=== END OF CP2K INPUT / START OF CP2K OUTPUT ===
================================================================================

 DBCSR| CPU Multiplication driver                                           BLAS (U)
 DBCSR| Multrec recursion limit                                              512 (U)
 DBCSR| Multiplication stack size                                           1000 (D)
 DBCSR| Maximum elements for images                                    UNLIMITED (U)
 DBCSR| Multiplicative factor virtual images                                   1 (U)
 DBCSR| Use multiplication densification                                       T (D)
 DBCSR| Multiplication size stacks                                             3 (U)
 DBCSR| Use memory pool for CPU allocation                                     F (U)
 DBCSR| Number of 3D layers                                               SINGLE (U)
 DBCSR| Use MPI memory allocation                                              F (U)
 DBCSR| Use RMA algorithm                                                      F (U)
 DBCSR| Use Communication thread                                               T (U)
 DBCSR| Communication thread load                                             87 (D)
 DBCSR| MPI: My process id                                                     0
 DBCSR| MPI: Number of processes                                              16
 DBCSR| OMP: Current number of threads                                         1
 DBCSR| OMP: Max number of threads                                             1
 DBCSR| Split modifier for TAS multiplication algorithm                  1.0E+00 (U)


  **** **** ******  **  PROGRAM STARTED AT               2026-08-13 13:56:30.257
 ***** ** ***  *** **   PROGRAM STARTED ON        eb3791e2ef3243b6944400b65b9622
 **    ****   ******    PROGRAM STARTED BY                             <unknown>
 ***** **    ** ** **   PROGRAM PROCESS ID                                  2324
  **** **  *******  **  PROGRAM STARTED IN                    /tmp/cp2k_1r02y4g2

 CP2K| version string:                                       CP2K version 2026.2
 CP2K| source code revision number:                                  git:c92cc08
 CP2K| cp2kflags: omp libint fftw3 libxc gauxc gauxc_mpi gauxc_onedft gauxc_host
 CP2K|             parallel scalapack mpi_f08 spglib sirius libtorch hdf5
 CP2K| is freely available from                            https://www.cp2k.org/
 CP2K| Program compiled at                                   2026-08-13 02:05:42
 CP2K| Program compiled on                                                      
 CP2K| Program compiled for                                               x86_64
 CP2K| Data directory path                             /opt/cp2k/share/cp2k/data
 CP2K| Input file name                                            cp2k_input.inp

 GLOBAL| Force Environment number                                              1
 GLOBAL| Basis set file name                                    BASIS_MOLOPT_UZH
 GLOBAL| Potential file name                                       POTENTIAL_UZH
 GLOBAL| MM Potential file name                                     MM_POTENTIAL
 GLOBAL| Coordinate file name                                      __STD_INPUT__
 GLOBAL| Method name                                                        CP2K
 GLOBAL| Project name                   58d6a215b118944918c02e6bc74a63117a8d0155
 GLOBAL| Run type                                                         ENERGY
 GLOBAL| FFT library                                                       FFTW3
 GLOBAL| Diagonalization library                                       ScaLAPACK
 GLOBAL| Cholesky decomposition library                                ScaLAPACK
 GLOBAL| DGEMM library                                                      BLAS
 GLOBAL| Direct generalized diagonalization requested                          F
 GLOBAL| Orthonormality check for eigenvectors                          DISABLED
 GLOBAL| Matrix multiplication library                                 ScaLAPACK
 GLOBAL| All-to-all communication in single precision                          F
 GLOBAL| FFTs using library dependent lengths                                  F
 GLOBAL| Grid backend                                                       AUTO
 GLOBAL| Global print level                                               MEDIUM
 GLOBAL| MPI I/O enabled                                                       T
 GLOBAL| Total number of message passing processes                            16
 GLOBAL| Number of distributed systems (nodes)                                 1
 GLOBAL| Number of threads for this process                                    1
 GLOBAL| This output is from process                                           0
 GLOBAL| OpenMP stack size per thread (OMP_STACKSIZE)                        16M
 GLOBAL| CPU model name                          AMD EPYC 9V74 80-Core Processor
 GLOBAL| CPUID                                                              1002

 MEMORY| system memory details [Kb]
 MEMORY|                        rank 0           min           max       average
 MEMORY| MemTotal            263924016     263924016     263924016     263924016
 MEMORY| MemFree             235789732     235789732     235789732     235789732
 MEMORY| Buffers                412360        412360        412360        412360
 MEMORY| Cached               19204184      19204184      19204184      19204184
 MEMORY| Slab                  2059140       2059140       2059140       2059140
 MEMORY| SReclaimable          1667192       1667192       1667192       1667192
 MEMORY| MemLikelyFree       257073468     257073468     257073468     257073468


 *** Fundamental physical constants (SI units) ***

 *** Literature: B. J. Mohr and B. N. Taylor,
 ***             CODATA recommended values of the fundamental physical
 ***             constants: 2006, Web Version 5.1
 ***             http://physics.nist.gov/constants

 Speed of light in vacuum [m/s]                             2.99792458000000E+08
 Magnetic constant or permeability of vacuum [N/A**2]       1.25663706143592E-06
 Electric constant or permittivity of vacuum [F/m]          8.85418781762039E-12
 Planck constant (h) [J*s]                                  6.62606896000000E-34
 Planck constant (h-bar) [J*s]                              1.05457162825177E-34
 Elementary charge [C]                                      1.60217648700000E-19
 Electron mass [kg]                                         9.10938215000000E-31
 Electron g factor [ ]                                     -2.00231930436220E+00
 Proton mass [kg]                                           1.67262163700000E-27
 Fine-structure constant                                    7.29735253760000E-03
 Rydberg constant [1/m]                                     1.09737315685270E+07
 Avogadro constant [1/mol]                                  6.02214179000000E+23
 Boltzmann constant [J/K]                                   1.38065040000000E-23
 Atomic mass unit [kg]                                      1.66053878200000E-27
 Bohr radius [m]                                            5.29177208590000E-11

 *** Conversion factors ***

 [u] -> [a.u.]                                              1.82288848426455E+03
 [Angstrom] -> [Bohr] = [a.u.]                              1.88972613288564E+00
 [a.u.] = [Bohr] -> [Angstrom]                              5.29177208590000E-01
 [a.u.] -> [s]                                              2.41888432650478E-17
 [a.u.] -> [fs]                                             2.41888432650478E-02
 [a.u.] -> [J]                                              4.35974393937059E-18
 [a.u.] -> [N]                                              8.23872205491840E-08
 [a.u.] -> [K]                                              3.15774647902944E+05
 [a.u.] -> [kJ/mol]                                         2.62549961709828E+03
 [a.u.] -> [kcal/mol]                                       6.27509468713739E+02
 [a.u.] -> [Pa]                                             2.94210107994716E+13
 [a.u.] -> [bar]                                            2.94210107994716E+08
 [a.u.] -> [atm]                                            2.90362800883016E+08
 [a.u.] -> [eV]                                             2.72113838565563E+01
 [a.u.] -> [Hz]                                             6.57968392072181E+15
 [a.u.] -> [1/cm] (wave numbers)                            2.19474631370540E+05
 [a.u./Bohr**2] -> [1/cm]                                   5.14048714338585E+03
 

 CELL| Volume [angstrom^3]:                                         30600.000000
 CELL| Vector a [angstrom]:      30.000     0.000     0.000   |a| =    30.000000
 CELL| Vector b [angstrom]:       0.000    30.000     0.000   |b| =    30.000000
 CELL| Vector c [angstrom]:       0.000     0.000    34.000   |c| =    34.000000
 CELL| Angle (b,c), alpha [degree]:                                    90.000000
 CELL| Angle (a,c), beta  [degree]:                                    90.000000
 CELL| Angle (a,b), gamma [degree]:                                    90.000000
 CELL| Numerically orthorhombic:                                             YES
 CELL| Periodicity                                                          NONE

 CELL_REF| Volume [angstrom^3]:                                     30600.000000
 CELL_REF| Vector a [angstrom    30.000     0.000     0.000   |a| =    30.000000
 CELL_REF| Vector b [angstrom     0.000    30.000     0.000   |b| =    30.000000
 CELL_REF| Vector c [angstrom     0.000     0.000    34.000   |c| =    34.000000
 CELL_REF| Angle (b,c), alpha [degree]:                                90.000000
 CELL_REF| Angle (a,c), beta  [degree]:                                90.000000
 CELL_REF| Angle (a,b), gamma [degree]:                                90.000000
 CELL_REF| Numerically orthorhombic:                                         YES
 CELL_REF| Periodicity                                                      NONE

 GENERATE|  Preliminary Number of Bonds generated:                             0
 GENERATE|  Achieved consistency in connectivity generation.

 *******************************************************************************
 *******************************************************************************
 **                                                                           **
 **     #####                         ##              ##                      **
 **    ##   ##            ##          ##              ##                      **
 **   ##     ##                       ##            ######                    **
 **   ##     ##  ##   ##  ##   #####  ##  ##   ####   ##    #####    #####    **
 **   ##     ##  ##   ##  ##  ##      ## ##   ##      ##   ##   ##  ##   ##   **
 **   ##  ## ##  ##   ##  ##  ##      ####     ###    ##   ######   ######    **
 **    ##  ###   ##   ##  ##  ##      ## ##      ##   ##   ##       ##        **
 **     #######   #####   ##   #####  ##  ##  ####    ##    #####   ##        **
 **           ##                                                    ##        **
 **                                                                           **
 **                                                ... make the atoms dance   **
 **                                                                           **
 **            Copyright (C) by CP2K developers group (2000-2026)             **
 **                      J. Chem. Phys. 152, 194103 (2020)                    **
 **                                                                           **
 *******************************************************************************

 DFT| Spin restricted Kohn-Sham (RKS) calculation                            RKS
 DFT| Multiplicity                                                             1
 DFT| Number of spin states                                                    1
 DFT| Charge                                                                   0
 DFT| Self-interaction correction (SIC)                                       NO
 DFT| Cutoffs: density                                              1.000000E-10
 DFT|          gradient                                             1.000000E-10
 DFT|          tau                                                  1.000000E-10
 DFT|          cutoff_smoothing_range                               0.000000E+00
 DFT| XC density smoothing                                                  NONE
 DFT| XC derivatives                                                          PW

 FUNCTIONAL| GAUXC:
 FUNCTIONAL| Functional computed by GauXC Skala model aug-s0-funv2-cpu.fun      


 QS| Method:                                                                 GPW
 QS| Density plane wave grid type                        NON-SPHERICAL FULLSPACE
 QS| Number of grid levels:                                                    4
 QS| Density cutoff [a.u.]:                                                500.0
 QS| Multi grid cutoff [a.u.]: 1) grid level                               500.0
 QS|                           2) grid level                               166.7
 QS|                           3) grid level                                55.6
 QS|                           4) grid level                                18.5
 QS| Grid level progression factor:                                          3.0
 QS| Relative density cutoff [a.u.]:                                        30.0
 QS| Interaction thresholds: eps_pgf_orb:                                1.0E-05
 QS|                         eps_filter_matrix:                          0.0E+00
 QS|                         eps_core_charge:                            1.0E-12
 QS|                         eps_rho_gspace:                             1.0E-10
 QS|                         eps_rho_rspace:                             1.0E-10
 QS|                         eps_gvg_rspace:                             1.0E-05
 QS|                         eps_ppl:                                    1.0E-02
 QS|                         eps_ppnl:                                   1.0E-07


 ATOMIC KIND INFORMATION

  1. Atomic kind: Be                                    Number of atoms:       1

     Orbital Basis Set                                   TZVP-MOLOPT-SCAN-GTH-q2

       Number of orbital shell sets:                                           1
       Number of orbital shells:                                               4
       Number of primitive Cartesian functions:                                5
       Number of Cartesian basis functions:                                    6
       Number of spherical basis functions:                                    6
       Norm type:                                                              2

       Normalised Cartesian orbitals:

                        Set   Shell   Orbital            Exponent    Coefficient

                          1       1    2s                1.586654      -0.102875
                                                         0.620809      -0.029541
                                                         0.037924       0.009522
                                                         0.210315       0.081619
                                                         0.077822       0.063015

                          1       2    3s                1.586654       1.056674
                                                         0.620809      -0.122014
                                                         0.037924       0.015246
                                                         0.210315      -0.379553
                                                         0.077822       0.120082

                          1       3    4s                1.586654       1.623775
                                                         0.620809      -0.634346
                                                         0.037924      -0.027697
                                                         0.210315       0.200780
                                                         0.077822      -0.030635

                          1       4    3px               1.586654       0.155399
                                                         0.620809       0.254220
                                                         0.037924       0.001069
                                                         0.210315       0.105107
                                                         0.077822       0.013910
                          1       4    3py               1.586654       0.155399
                                                         0.620809       0.254220
                                                         0.037924       0.001069
                                                         0.210315       0.105107
                                                         0.077822       0.013910
                          1       4    3pz               1.586654       0.155399
                                                         0.620809       0.254220
                                                         0.037924       0.001069
                                                         0.210315       0.105107
                                                         0.077822       0.013910

       Atomic covalent radius [Angstrom]:                                  0.900

       Atomic van der Waals radius [Angstrom]:                             1.530

     GTH Potential information for                                   GTH-SCAN-q2

       Description:                       Goedecker-Teter-Hutter pseudopotential
                                           Goedecker et al., PRB 54, 1703 (1996)
                                          Hartwigsen et al., PRB 58, 3641 (1998)
                                                      Krack, TCA 114, 145 (2005)

       Gaussian exponent of the core charge distribution:               0.944098
       Electronic configuration (s p d ...):                       2   0   0   0

       Parameters of the local part of the GTH pseudopotential:

                          rloc        C1          C2          C3          C4
                        0.727740   -1.990408    0.279067

       Parameters of the non-local part of the GTH pseudopotential:

                   l      r(l)      h(i,j,l)

                   0    0.510086    3.073286
                   1    0.784446   -0.013137

  2. Atomic kind: Cl                                    Number of atoms:       2

     Orbital Basis Set                                   TZVP-MOLOPT-SCAN-GTH-q7

       Number of orbital shell sets:                                           1
       Number of orbital shells:                                               7
       Number of primitive Cartesian functions:                                4
       Number of Cartesian basis functions:                                   18
       Number of spherical basis functions:                                   17
       Norm type:                                                              2

       Normalised Cartesian orbitals:

                        Set   Shell   Orbital            Exponent    Coefficient

                          1       1    2s                1.990311       0.553567
                                                         1.465019      -0.335082
                                                         0.406554      -0.193469
                                                         0.133703      -0.084795

                          1       2    3s                1.990311       0.542077
                                                         1.465019       0.196337
                                                         0.406554      -0.540548
                                                         0.133703       0.272824

                          1       3    4s                1.990311      -0.144377
                                                         1.465019      -1.031705
                                                         0.406554       0.087725
                                                         0.133703       0.058245

                          1       4    3px               1.990311       0.952589
                                                         1.465019      -0.976975
                                                         0.406554      -0.277977
                                                         0.133703      -0.041264
                          1       4    3py               1.990311       0.952589
                                                         1.465019      -0.976975
                                                         0.406554      -0.277977
                                                         0.133703      -0.041264
                          1       4    3pz               1.990311       0.952589
                                                         1.465019      -0.976975
                                                         0.406554      -0.277977
                                                         0.133703      -0.041264

                          1       5    4px               1.990311       0.721240
                                                         1.465019      -0.521030
                                                         0.406554      -0.232610
                                                         0.133703       0.147705
                          1       5    4py               1.990311       0.721240
                                                         1.465019      -0.521030
                                                         0.406554      -0.232610
                                                         0.133703       0.147705
                          1       5    4pz               1.990311       0.721240
                                                         1.465019      -0.521030
                                                         0.406554      -0.232610
                                                         0.133703       0.147705

                          1       6    5px               1.990311      -1.056793
                                                         1.465019      -2.017277
                                                         0.406554       0.200798
                                                         0.133703       0.007744
                          1       6    5py               1.990311      -1.056793
                                                         1.465019      -2.017277
                                                         0.406554       0.200798
                                                         0.133703       0.007744
                          1       6    5pz               1.990311      -1.056793
                                                         1.465019      -2.017277
                                                         0.406554       0.200798
                                                         0.133703       0.007744

                          1       7    4dx2              1.990311       0.501660
                                                         1.465019       0.640939
                                                         0.406554       0.258323
                                                         0.133703       0.006080
                          1       7    4dxy              1.990311       0.868900
                                                         1.465019       1.110139
                                                         0.406554       0.447429
                                                         0.133703       0.010530
                          1       7    4dxz              1.990311       0.868900
                                                         1.465019       1.110139
                                                         0.406554       0.447429
                                                         0.133703       0.010530
                          1       7    4dy2              1.990311       0.501660
                                                         1.465019       0.640939
                                                         0.406554       0.258323
                                                         0.133703       0.006080
                          1       7    4dyz              1.990311       0.868900
                                                         1.465019       1.110139
                                                         0.406554       0.447429
                                                         0.133703       0.010530
                          1       7    4dz2              1.990311       0.501660
                                                         1.465019       0.640939
                                                         0.406554       0.258323
                                                         0.133703       0.006080

       Atomic covalent radius [Angstrom]:                                  0.990

       Atomic van der Waals radius [Angstrom]:                             1.750

     GTH Potential information for                                   GTH-SCAN-q7

       Description:                       Goedecker-Teter-Hutter pseudopotential
                                           Goedecker et al., PRB 54, 1703 (1996)
                                          Hartwigsen et al., PRB 58, 3641 (1998)
                                                      Krack, TCA 114, 145 (2005)

       Gaussian exponent of the core charge distribution:               3.057284
       Electronic configuration (s p d ...):                       2   5   0   0

       Parameters of the local part of the GTH pseudopotential:

                          rloc        C1          C2          C3          C4
                        0.404406   -6.394753

       Parameters of the non-local part of the GTH pseudopotential:

                   l      r(l)      h(i,j,l)

                   0    0.339247   15.226939   -4.934521
                                   -4.934521    6.367374
                   1    0.377245    4.332916


 MOLECULE KIND INFORMATION


 All atoms are their own molecule, skipping detailed information


 TOTAL NUMBERS AND MAXIMUM NUMBERS

  Total number of            - Atomic kinds:                                   2
                             - Atoms:                                          3
                             - Shell sets:                                     3
                             - Shells:                                        18
                             - Primitive Cartesian functions:                 13
                             - Cartesian basis functions:                     42
                             - Spherical basis functions:                     40

  Maximum angular momentum of- Orbital basis functions:                        2
                             - Local part of the GTH pseudopotential:          2
                             - Non-local part of the GTH pseudopotential:      2


 MODULE QUICKSTEP: ATOMIC COORDINATES IN ANGSTROM

   Atom Kind Element         X             Y             Z       Z(eff)     Mass
      1    1 Be    4     15.000000     15.000000     17.000000   2.0000   9.0122
      2    2 Cl   17     15.000000     15.000000     18.799840   7.0000  35.4530
      3    2 Cl   17     15.000000     15.000000     15.200160   7.0000  35.4530



 SCF PARAMETERS         Density guess:                                    ATOMIC
                        --------------------------------------------------------
                        max_scf:                                             100
                        max_scf_history:                                       0
                        max_diis:                                              4
                        --------------------------------------------------------
                        eps_scf:                                        1.00E-05
                        eps_scf_history:                                0.00E+00
                        eps_diis:                                       1.00E-01
                        eps_eigval:                                     1.00E-05
                        --------------------------------------------------------
                        level_shift [a.u.]:                             0.000000
                        --------------------------------------------------------
                        Mixing method:                           DIRECT_P_MIXING
                        --------------------------------------------------------
                        No outer SCF

 PW_GRID| Information for grid number                                          1
 PW_GRID| Grid distributed over                                    16 processors
 PW_GRID| Real space group dimensions                                    16    1
 PW_GRID| the grid is blocked:                                                NO
 PW_GRID| Cutoff [a.u.]                                                    500.0
 PW_GRID| spherical cutoff:                                                   NO
 PW_GRID|   Bounds   1           -288     287                Points:         576
 PW_GRID|   Bounds   2           -288     287                Points:         576
 PW_GRID|   Bounds   3           -324     323                Points:         648
 PW_GRID| Volume element (a.u.^3)  0.9605E-03     Volume (a.u.^3)    206499.0382
 PW_GRID| Grid span                                                    FULLSPACE
 PW_GRID|   Distribution                         Average         Max         Min
 PW_GRID|   G-Vectors                         13436928.0    13436928    13436928
 PW_GRID|   G-Rays                               23328.0       23328       23328
 PW_GRID|   Real Space Points                 13436928.0    13436928    13436928

 PW_GRID| Information for grid number                                          2
 PW_GRID| Number of the reference grid                                         1
 PW_GRID| Grid distributed over                                    16 processors
 PW_GRID| Real space group dimensions                                    16    1
 PW_GRID| the grid is blocked:                                                NO
 PW_GRID| Cutoff [a.u.]                                                    166.7
 PW_GRID| spherical cutoff:                                                   NO
 PW_GRID|   Bounds   1           -180     179                Points:         360
 PW_GRID|   Bounds   2           -180     179                Points:         360
 PW_GRID|   Bounds   3           -187     187                Points:         375
 PW_GRID| Volume element (a.u.^3)  0.4249E-02     Volume (a.u.^3)    206499.0382
 PW_GRID| Grid span                                                    FULLSPACE
 PW_GRID|   Distribution                         Average         Max         Min
 PW_GRID|   G-Vectors                          3037500.0     3038040     3036240
 PW_GRID|   G-Rays                                8437.5        8439        8434
 PW_GRID|   Real Space Points                  3037500.0     3105000     2970000

 PW_GRID| Information for grid number                                          3
 PW_GRID| Number of the reference grid                                         1
 PW_GRID| Grid distributed over                                    16 processors
 PW_GRID| Real space group dimensions                                    16    1
 PW_GRID| the grid is blocked:                                                NO
 PW_GRID| Cutoff [a.u.]                                                     55.6
 PW_GRID| spherical cutoff:                                                   NO
 PW_GRID|   Bounds   1            -96      95                Points:         192
 PW_GRID|   Bounds   2            -96      95                Points:         192
 PW_GRID|   Bounds   3           -108     107                Points:         216
 PW_GRID| Volume element (a.u.^3)  0.2593E-01     Volume (a.u.^3)    206499.0382
 PW_GRID| Grid span                                                    FULLSPACE
 PW_GRID|   Distribution                         Average         Max         Min
 PW_GRID|   G-Vectors                           497664.0      497856      497472
 PW_GRID|   G-Rays                                2592.0        2593        2591
 PW_GRID|   Real Space Points                   497664.0      497664      497664

 PW_GRID| Information for grid number                                          4
 PW_GRID| Number of the reference grid                                         1
 PW_GRID| Grid distributed over                                    16 processors
 PW_GRID| Real space group dimensions                                    16    1
 PW_GRID| the grid is blocked:                                                NO
 PW_GRID| Cutoff [a.u.]                                                     18.5
 PW_GRID| spherical cutoff:                                                   NO
 PW_GRID|   Bounds   1            -60      59                Points:         120
 PW_GRID|   Bounds   2            -60      59                Points:         120
 PW_GRID|   Bounds   3            -62      62                Points:         125
 PW_GRID| Volume element (a.u.^3)  0.1147         Volume (a.u.^3)    206499.0382
 PW_GRID| Grid span                                                    FULLSPACE
 PW_GRID|   Distribution                         Average         Max         Min
 PW_GRID|   G-Vectors                           112500.0      112920      112080
 PW_GRID|   G-Rays                                 937.5         941         934
 PW_GRID|   Real Space Points                   112500.0      120000      105000

 POISSON| Solver                                                        ANALYTIC
 POISSON| Periodicity                                                       NONE

 RS_GRID| Information for grid number                                          1
 RS_GRID|   Bounds   1           -288     287                Points:         576
 RS_GRID|   Bounds   2           -288     287                Points:         576
 RS_GRID|   Bounds   3           -324     323                Points:         648
 RS_GRID| Real space distribution over                                  4 groups
 RS_GRID| Real space distribution along direction                              2
 RS_GRID| Border size                                                         53
 RS_GRID| Real space distribution over                                  4 groups
 RS_GRID| Real space distribution along direction                              3
 RS_GRID| Border size                                                         53
 RS_GRID|   Distribution                         Average         Max         Min
 RS_GRID|   Planes                                 250.0         250         250
 RS_GRID|   Distribution                         Average         Max         Min
 RS_GRID|   Planes                                 268.0         268         268

 RS_GRID| Information for grid number                                          2
 RS_GRID|   Bounds   1           -180     179                Points:         360
 RS_GRID|   Bounds   2           -180     179                Points:         360
 RS_GRID|   Bounds   3           -187     187                Points:         375
 RS_GRID| Real space distribution over                                  4 groups
 RS_GRID| Real space distribution along direction                              2
 RS_GRID| Border size                                                         34
 RS_GRID| Real space distribution over                                  4 groups
 RS_GRID| Real space distribution along direction                              3
 RS_GRID| Border size                                                         34
 RS_GRID|   Distribution                         Average         Max         Min
 RS_GRID|   Planes                                 158.0         158         158
 RS_GRID|   Distribution                         Average         Max         Min
 RS_GRID|   Planes                                 161.8         162         161

 RS_GRID| Information for grid number                                          3
 RS_GRID|   Bounds   1            -96      95                Points:         192
 RS_GRID|   Bounds   2            -96      95                Points:         192
 RS_GRID|   Bounds   3           -108     107                Points:         216
 RS_GRID| Real space fully replicated
 RS_GRID| Group size                                                           1

 RS_GRID| Information for grid number                                          4
 RS_GRID|   Bounds   1            -60      59                Points:         120
 RS_GRID|   Bounds   2            -60      59                Points:         120
 RS_GRID|   Bounds   3            -62      62                Points:         125
 RS_GRID| Real space fully replicated
 RS_GRID| Group size                                                           1

 Extrapolation method: initial_guess

 Atomic guess: The first density matrix is obtained in terms of atomic orbitals
               and electronic configurations assigned to each atomic kind

 Guess for atomic kind: Be

 Electronic structure
    Total number of core electrons                                          2.00
    Total number of valence electrons                                       2.00
    Total number of electrons                                               4.00
    Multiplicity                                                   not specified
    S   [  2.00] 2.00


 *******************************************************************************
                  Iteration          Convergence                     Energy [au]
 *******************************************************************************
                          1        0.992620E-02                  -0.935825889801
                          2        0.268290E-03                  -0.935841511278
                          3        0.478133E-04                  -0.935841584626
                          4        0.533695E-08                  -0.935841587056

 Energy components [Hartree]           Total Energy ::           -0.935841587056
                                        Band Energy ::           -0.337082721079
                                     Kinetic Energy ::            0.385131833756
                                   Potential Energy ::           -1.320973420812
                                      Virial (-V/T) ::            3.429925300981
                                        Core Energy ::           -1.268365940553
                                          XC Energy ::           -0.380856644308
                                     Coulomb Energy ::            0.713380997806
                       Total Pseudopotential Energy ::           -1.699620875143
                       Local Pseudopotential Energy ::           -1.915879295356
                    Nonlocal Pseudopotential Energy ::            0.216258420213
                                        Confinement ::            0.461231008342

 Orbital energies  State     L     Occupation   Energy[a.u.]          Energy[eV]

                       1     0          2.000      -0.168541           -4.586244


 Total Electron Density at R=0:                                         0.000040

 Guess for atomic kind: Cl

 Electronic structure
    Total number of core electrons                                         10.00
    Total number of valence electrons                                       7.00
    Total number of electrons                                              17.00
    Multiplicity                                                   not specified
    S   [  2.00  2.00] 2.00
    P   [  6.00] 5.00


 *******************************************************************************
                  Iteration          Convergence                     Energy [au]
 *******************************************************************************
                          1        0.168525E-01                 -14.779020970431
                          2        0.182680E-01                 -14.779082242678
                          3        0.150516E-03                 -14.779143853879
                          4        0.370067E-05                 -14.779143857326
                          5        0.317509E-08                 -14.779143857329

 Energy components [Hartree]           Total Energy ::          -14.779143857329
                                        Band Energy ::           -2.965247378479
                                     Kinetic Energy ::            5.572175315872
                                   Potential Energy ::          -20.351319173201
                                      Virial (-V/T) ::            3.652311354101
                                        Core Energy ::          -24.692790003969
                                          XC Energy ::           -2.744840862011
                                     Coulomb Energy ::           12.658487008651
                       Total Pseudopotential Energy ::          -30.323862198887
                       Local Pseudopotential Energy ::          -33.454909953544
                    Nonlocal Pseudopotential Energy ::            3.131047754657
                                        Confinement ::            0.588968790466

 Orbital energies  State     L     Occupation   Energy[a.u.]          Energy[eV]

                       1     0          2.000      -0.737137          -20.058527

                       1     1          5.000      -0.298195           -8.114286


 Total Electron Density at R=0:                                         0.000217
 Re-scaling the density matrix to get the right number of electrons
                  # Electrons              Trace(P)               Scaling factor
                           16                16.000                        1.000

 Number of electrons:                                                         16
 Number of occupied orbitals:                                                  8
 Number of molecular orbitals:                                                 8

 Number of orbital functions:                                                 40
 Number of independent orbital functions:                                     40


 SCF WAVEFUNCTION OPTIMIZATION

  Step     Update method      Time    Convergence         Total energy    Change
  ------------------------------------------------------------------------------
     1 P_Mix/Diag. 0.40E+00    9.9     1.93119819       -31.0972489849 -3.11E+01
     2 P_Mix/Diag. 0.40E+00   14.2     1.13286156       -31.1528884508 -5.56E-02
     3 P_Mix/Diag. 0.40E+00   13.9     0.66651470       -31.1840015723 -3.11E-02
     4 P_Mix/Diag. 0.40E+00   14.0     0.38956337       -31.2015777669 -1.76E-02
     5 P_Mix/Diag. 0.40E+00   13.8     0.24573719       -31.2123590501 -1.08E-02
     6 P_Mix/Diag. 0.40E+00   13.8     0.13916380       -31.2187958394 -6.44E-03
     7 P_Mix/Diag. 0.40E+00   13.9     0.09344340       -31.2223419513 -3.55E-03
     8 DIIS/Diag.  0.63E-01   13.8     0.05123198       -31.2250664765 -2.72E-03
     9 DIIS/Diag.  0.33E-01   13.8     0.00162153       -31.2294708785 -4.40E-03
    10 DIIS/Diag.  0.35E-01   13.8     0.00248659       -31.2292839300  1.87E-04
    11 DIIS/Diag.  0.35E-01   13.8     0.00558441       -31.2294625662 -1.79E-04
    12 DIIS/Diag.  0.51E-01   13.9     0.00546712       -31.2292477815  2.15E-04
    13 DIIS/Diag.  0.38E-01   13.9     0.00135128       -31.2294557634 -2.08E-04
    14 DIIS/Diag.  0.30E-01   13.9     0.01085246       -31.2295331518 -7.74E-05
    15 DIIS/Diag.  0.73E-01   14.0     0.00825150       -31.2294130634  1.20E-04
    16 DIIS/Diag.  0.99E-02   13.9     0.00103829       -31.2296014650 -1.88E-04
    17 DIIS/Diag.  0.51E-02   14.1     0.00052296       -31.2296203778 -1.89E-05
    18 DIIS/Diag.  0.61E-02   13.9     0.00137652       -31.2296223700 -1.99E-06
    19 DIIS/Diag.  0.37E-02   14.0     0.00048270       -31.2296266619 -4.29E-06
    20 DIIS/Diag.  0.20E-02   14.0     0.00032156       -31.2296277712 -1.11E-06
    21 DIIS/Diag.  0.49E-02   13.8     0.00016956       -31.2296267889  9.82E-07
    22 DIIS/Diag.  0.85E-03   13.9     0.00016974       -31.2296281213 -1.33E-06
    23 DIIS/Diag.  0.13E-02   13.9     0.00009006       -31.2296280413  8.00E-08
    24 DIIS/Diag.  0.15E-02   14.1     0.00031477       -31.2296280645 -2.33E-08
    25 DIIS/Diag.  0.32E-02   13.8     0.00026129       -31.2296273411  7.23E-07
    26 DIIS/Diag.  0.21E-03   14.1     0.00003737       -31.2296281804 -8.39E-07
    27 DIIS/Diag.  0.45E-03   14.3     0.00009311       -31.2296281626  1.78E-08
    28 DIIS/Diag.  0.11E-02   14.1     0.00006881       -31.2296281427  1.99E-08
    29 DIIS/Diag.  0.20E-03   14.0     0.00005944       -31.2296281884 -4.57E-08
    30 DIIS/Diag.  0.76E-03   14.0     0.00006596       -31.2296281668  2.16E-08
    31 DIIS/Diag.  0.60E-03   14.0     0.00004153       -31.2296281706 -3.85E-09
    32 DIIS/Diag.  0.40E-03   14.1     0.00005743       -31.2296281742 -3.57E-09
    33 DIIS/Diag.  0.67E-03   14.1     0.00009882       -31.2296281736  6.45E-10
    34 DIIS/Diag.  0.17E-02   13.9     0.00016911       -31.2296279590  2.15E-07
    35 DIIS/Diag.  0.13E-02   14.1     0.00012938       -31.2296280853 -1.26E-07
    36 DIIS/Diag.  0.12E-02   14.0     0.00011544       -31.2296280783  7.05E-09
    37 DIIS/Diag.  0.12E-02   14.0     0.00039888       -31.2296279200  1.58E-07
    38 DIIS/Diag.  0.54E-02   14.0     0.00029911       -31.2296268827  1.04E-06
    39 DIIS/Diag.  0.25E-02   13.9     0.00037643       -31.2296278373 -9.55E-07
    40 DIIS/Diag.  0.43E-02   14.2     0.00051244       -31.2296267611  1.08E-06
    41 DIIS/Diag.  0.51E-02   14.2     0.00063157       -31.2296253386  1.42E-06
    42 DIIS/Diag.  0.69E-02   14.1     0.00071341       -31.2296214117  3.93E-06
    43 DIIS/Diag.  0.64E-02   14.0     0.00088246       -31.2296267088 -5.30E-06
    44 DIIS/Diag.  0.17E-01   13.8     0.00177978       -31.2296121590  1.45E-05
    45 DIIS/Diag.  0.15E-01   13.9     0.00148017       -31.2296025738  9.59E-06
    46 DIIS/Diag.  0.15E-01   14.3     0.00127065       -31.2296116238 -9.05E-06
    47 DIIS/Diag.  0.13E-01   14.0     0.00346797       -31.2296108869  7.37E-07
    48 DIIS/Diag.  0.44E-01   14.0     0.00277840       -31.2295027993  1.08E-04
    49 DIIS/Diag.  0.38E-01   14.0     0.00331956       -31.2295598007 -5.70E-05
    50 DIIS/Diag.  0.27E-01   13.8     0.00309120       -31.2295255169  3.43E-05
    51 DIIS/Diag.  0.31E-01   13.8     0.00800936       -31.2294806357  4.49E-05
    52 DIIS/Diag.  0.58E-01   14.1     0.00666427       -31.2289340680  5.47E-04
    53 DIIS/Diag.  0.52E-01   14.0     0.00537764       -31.2293492210 -4.15E-04
    54 DIIS/Diag.  0.66E-01   14.1     0.01085255       -31.2292834019  6.58E-05
    55 DIIS/Diag.  0.49E-01   14.0     0.00950139       -31.2288855021  3.98E-04
    56 DIIS/Diag.  0.32E-01   14.0     0.00654971       -31.2290308818 -1.45E-04
    57 DIIS/Diag.  0.38E-01   14.0     0.00537174       -31.2294453542 -4.14E-04
    58 DIIS/Diag.  0.44E-01   14.1     0.00842839       -31.2291800456  2.65E-04
    59 DIIS/Diag.  0.72E-01   13.9     0.00789871       -31.2290505397  1.30E-04
    60 DIIS/Diag.  0.30E-01   13.9     0.00489108       -31.2294382322 -3.88E-04
    61 DIIS/Diag.  0.35E-01   14.0     0.00766353       -31.2293488022  8.94E-05
    62 DIIS/Diag.  0.61E-01   14.1     0.00499059       -31.2290632463  2.86E-04
    63 DIIS/Diag.  0.35E-01   13.9     0.00423147       -31.2293648654 -3.02E-04
    64 DIIS/Diag.  0.43E-01   13.9     0.01148930       -31.2294403306 -7.55E-05
    65 DIIS/Diag.  0.48E-01   14.2     0.00799654       -31.2286783297  7.62E-04
    66 DIIS/Diag.  0.39E-01   14.1     0.00463435       -31.2292910841 -6.13E-04
    67 DIIS/Diag.  0.44E-01   14.0     0.00816914       -31.2295552092 -2.64E-04
    68 DIIS/Diag.  0.54E-01   13.9     0.00983349       -31.2291648036  3.90E-04
    69 DIIS/Diag.  0.80E-01   13.8     0.00800807       -31.2290351813  1.30E-04
    70 DIIS/Diag.  0.62E-01   13.9     0.00788341       -31.2297929563 -7.58E-04
    71 DIIS/Diag.  0.71E-01   14.0     0.00936289       -31.2297744659  1.85E-05
    72 DIIS/Diag.  0.76E-01   13.8     0.01476976       -31.2296080762  1.66E-04
    73 DIIS/Diag.  0.46E-01   13.8     0.01156855       -31.2301963332 -5.88E-04
    74 DIIS/Diag.  0.80E-01   13.8     0.00574496       -31.2303763486 -1.80E-04
    75 DIIS/Diag.  0.83E-01   14.0     0.00873435       -31.2302987590  7.76E-05
    76 DIIS/Diag.  0.10E+00   14.2     0.00576890       -31.2301582207  1.41E-04
    77 DIIS/Diag.  0.78E-01   13.8     0.00601237       -31.2305549123 -3.97E-04
    78 DIIS/Diag.  0.53E-01   13.8     0.00543607       -31.2302980466  2.57E-04
    79 DIIS/Diag.  0.92E-01   13.8     0.00861367       -31.2306464583 -3.48E-04
    80 P_Mix/Diag. 0.40E+00   13.8     0.03925913       -31.2294874311  1.16E-03
    81 P_Mix/Diag. 0.40E+00   14.0     5.65898362       -31.2173789205  1.21E-02
    82 P_Mix/Diag. 0.40E+00   14.0     2.54975603       -29.1973487040  2.02E+00
    83 P_Mix/Diag. 0.40E+00   13.9     1.49825260       -29.8402040593 -6.43E-01
    84 P_Mix/Diag. 0.40E+00   14.1     0.86936519       -30.1872774782 -3.47E-01
    85 P_Mix/Diag. 0.40E+00   13.9     0.51054363       -30.3893940887 -2.02E-01
    86 P_Mix/Diag. 0.40E+00   13.9    20.39188748       -30.5270896476 -1.38E-01
    87 P_Mix/Diag. 0.40E+00   13.9     8.18615819       -25.8641821501  4.66E+00
    88 P_Mix/Diag. 0.40E+00   13.9     4.91850688       -28.0207492946 -2.16E+00
    89 P_Mix/Diag. 0.40E+00   13.9     2.95207763       -29.1218508682 -1.10E+00
    90 P_Mix/Diag. 0.40E+00   13.9     1.76119366       -29.7543174581 -6.32E-01
    91 P_Mix/Diag. 0.40E+00   13.8     7.16609792       -30.1351174210 -3.81E-01
    92 P_Mix/Diag. 0.40E+00   14.0     3.43054307       -28.8256754079  1.31E+00
    93 P_Mix/Diag. 0.40E+00   14.0     2.01404689       -29.6087743541 -7.83E-01
    94 P_Mix/Diag. 0.40E+00   13.8     1.17747475       -30.0462604052 -4.37E-01
    95 P_Mix/Diag. 0.40E+00   13.9     0.69224687       -30.3172917832 -2.71E-01
    96 P_Mix/Diag. 0.40E+00   13.9     8.05063805       -30.5852660026 -2.68E-01
    97 P_Mix/Diag. 0.40E+00   13.9    13.24662868       -25.4303016876  5.15E+00
    98 P_Mix/Diag. 0.40E+00   14.2     8.61592317       -22.4635271306  2.97E+00
    99 P_Mix/Diag. 0.40E+00   14.1     5.17148949       -26.4539220905 -3.99E+00
   100 P_Mix/Diag. 0.40E+00   13.9     3.05008278       -28.4151349719 -1.96E+00

  Leaving inner SCF loop after reaching   100 steps.


  Electronic density on regular grids:        -16.0000000000        0.0000000000
  Core density on regular grids:               15.9999999956       -0.0000000044
  Total charge density on r-space grids:       -0.0000000044
  Total charge density g-space grids:          -0.0000000044

  Overlap energy of the core charge distribution:               0.00036245726360
  Self energy of the core charge distribution:                -69.91083202015025
  Core Hamiltonian energy:                                     19.74327779114319
  Hartree energy:                                              28.11273700236611
  Exchange-correlation energy:                                 -6.36068020257068

  Total energy:                                               -28.41513497194804

 *******************************************************************************
 *   ___                                                                       *
 *  /   \                                                                      *
 * [ABORT]                                                                     *
 *  \___/     SCF run NOT converged. To continue the calculation regardless,   *
 *    |             please set the keyword IGNORE_CONVERGENCE_FAILURE.         *
 *  O/|                                                                        *
 * /| |                                                                        *
 * / \                                                            qs_scf.F:702 *
 *******************************************************************************


 ===== Routine Calling Stack ===== 

            3 scf_env_do_scf
            2 qs_energies
            1 CP2K
