&GLOBAL
  PRINT_LEVEL MEDIUM
  PROJECT_NAME 827c86c6054b11a34908826558815d4c97039dfc
  RUN_TYPE ENERGY
&END GLOBAL
&FORCE_EVAL
  METHOD Quickstep
  &DFT
    BASIS_SET_FILE_NAME BASIS_MOLOPT_UZH
    POTENTIAL_FILE_NAME POTENTIAL_UZH
    CHARGE 0
    MULTIPLICITY 1
    UKS FALSE
    &MGRID
      CUTOFF 1000
      REL_CUTOFF 60
      NGRIDS 4
    &END MGRID
    &POISSON
      PERIODIC NONE
      POISSON_SOLVER ANALYTIC
    &END POISSON
    &QS
      EPS_DEFAULT 1e-10
    &END QS
    &SCF
      EPS_SCF 1e-05
      MAX_SCF 100
      SCF_GUESS ATOMIC
      &DIAGONALIZATION
      &END DIAGONALIZATION
      &MIXING
        METHOD DIRECT_P_MIXING
        ALPHA 0.4
        NMIXING 2
      &END MIXING
    &END SCF
    &XC
      &XC_FUNCTIONAL
        &GAUXC
          FUNCTIONAL PBE
          MODEL aug-s0-funv2-cpu.fun
          GRID FINE
          PRUNING_SCHEME ROBUST
          RADIAL_QUADRATURE MURAKNOWLES
        &END GAUXC
      &END XC_FUNCTIONAL
    &END XC
    &PRINT
      &MO
        ENERGIES T
        OCCNUMS  T
        &EACH
          QS_SCF 0
        &END
      &END
    &END
  &END DFT
  &SUBSYS
    &CELL
      ABC 38.0000 38.0000 35.0000
      ALPHA_BETA_GAMMA 90.0000 90.0000 90.0000
      PERIODIC NONE
    &END CELL
    &TOPOLOGY
      &CENTER_COORDINATES
      &END
    &END TOPOLOGY
    &COORD
      N       -0.2912199988        3.2231200003        0.3407599976
      C        0.9233900016        2.9188799984       -0.2387799978
      C        0.9119900004        1.6162600013       -0.6916999995
      C       -0.3884700011        1.0961700016       -0.3799200002
      C       -0.9907100001       -0.1598600008       -0.6112400016
      C       -2.2934099982       -0.3488299977       -0.1758900009
      C       -3.0067500012        0.6890100012        0.4756000025
      C       -2.4343400020        1.9274499997        0.6986599975
      C       -1.1161499974        2.1232299993        0.2616600011
      H       -0.5512699994        4.1231700007        0.7000499978
      H        1.7048299998        3.6600700000       -0.2917900020
      H       -0.4355400018       -0.9414900001       -1.1075900004
      H       -4.0205199990        0.4834299996        0.7903199992
      H       -2.9944500019        2.7117399982        1.1915100023
      O       -2.9946300015       -1.5164300008       -0.3183700018
      C       -2.3446900005       -2.5488499974       -1.0472899979
      H       -1.4191099990       -2.8640500002       -0.5620500006
      H       -2.1204099981       -2.2278200017       -2.0667900006
      H       -3.0429099977       -3.3799699988       -1.0728199990
      C        2.0354499989        0.8462700010       -1.3148000001
      C        2.9743200003        0.2184300013       -0.2684999975
      N        2.2819600004       -0.4998199989        0.7891799980
      C        1.6722700012       -1.6976599978        0.5647500003
      C        0.8354200001       -2.2126000025        1.7175100012
      H        2.6344700023        1.4891099996       -1.9641699980
      H        1.6282800023        0.0497100023       -1.9376500016
      H        3.5646400022        0.9996200002        0.2108899986
      H        3.6569499976       -0.4753599995       -0.7577600006
      H        1.9822700017        0.0257900017        1.5915999993
      O        1.7868100009       -2.3070800003       -0.4926899975
      H       -0.1802300002       -1.8283300016        1.6117199995
      H        1.2264699994       -1.8957199997        2.6832699997
      H        0.8053000006       -3.2975700003        1.6723400007
    &END COORD
    &KIND C
      BASIS_SET TZVP-MOLOPT-SCAN-GTH-q4
      POTENTIAL GTH-SCAN-q4
    &END KIND
    &KIND H
      BASIS_SET TZVP-MOLOPT-SCAN-GTH-q1
      POTENTIAL GTH-SCAN-q1
    &END KIND
    &KIND N
      BASIS_SET TZVP-MOLOPT-SCAN-GTH-q5
      POTENTIAL GTH-SCAN-q5
    &END KIND
    &KIND O
      BASIS_SET TZVP-MOLOPT-SCAN-GTH-q6
      POTENTIAL GTH-SCAN-q6
    &END KIND
  &END SUBSYS
&END FORCE_EVAL

================================================================================
=== END OF CP2K INPUT / START OF CP2K OUTPUT ===
================================================================================

 DBCSR| CPU Multiplication driver                                           BLAS (U)
 DBCSR| Multrec recursion limit                                              512 (U)
 DBCSR| Multiplication stack size                                           1000 (D)
 DBCSR| Maximum elements for images                                    UNLIMITED (U)
 DBCSR| Multiplicative factor virtual images                                   1 (U)
 DBCSR| Use multiplication densification                                       T (D)
 DBCSR| Multiplication size stacks                                             3 (U)
 DBCSR| Use memory pool for CPU allocation                                     F (U)
 DBCSR| Number of 3D layers                                               SINGLE (U)
 DBCSR| Use MPI memory allocation                                              F (U)
 DBCSR| Use RMA algorithm                                                      F (U)
 DBCSR| Use Communication thread                                               T (U)
 DBCSR| Communication thread load                                             87 (D)
 DBCSR| MPI: My process id                                                     0
 DBCSR| MPI: Number of processes                                              16
 DBCSR| OMP: Current number of threads                                         1
 DBCSR| OMP: Max number of threads                                             1
 DBCSR| Split modifier for TAS multiplication algorithm                  1.0E+00 (U)


  **** **** ******  **  PROGRAM STARTED AT               2026-08-13 13:49:34.836
 ***** ** ***  *** **   PROGRAM STARTED ON        eb3791e2ef3243b6944400b65b9622
 **    ****   ******    PROGRAM STARTED BY                             <unknown>
 ***** **    ** ** **   PROGRAM PROCESS ID                                  1511
  **** **  *******  **  PROGRAM STARTED IN                    /tmp/cp2k_xlix4alw

 CP2K| version string:                                       CP2K version 2026.2
 CP2K| source code revision number:                                  git:c92cc08
 CP2K| cp2kflags: omp libint fftw3 libxc gauxc gauxc_mpi gauxc_onedft gauxc_host
 CP2K|             parallel scalapack mpi_f08 spglib sirius libtorch hdf5
 CP2K| is freely available from                            https://www.cp2k.org/
 CP2K| Program compiled at                                   2026-08-13 02:05:42
 CP2K| Program compiled on                                                      
 CP2K| Program compiled for                                               x86_64
 CP2K| Data directory path                             /opt/cp2k/share/cp2k/data
 CP2K| Input file name                                            cp2k_input.inp

 GLOBAL| Force Environment number                                              1
 GLOBAL| Basis set file name                                    BASIS_MOLOPT_UZH
 GLOBAL| Potential file name                                       POTENTIAL_UZH
 GLOBAL| MM Potential file name                                     MM_POTENTIAL
 GLOBAL| Coordinate file name                                      __STD_INPUT__
 GLOBAL| Method name                                                        CP2K
 GLOBAL| Project name                   827c86c6054b11a34908826558815d4c97039dfc
 GLOBAL| Run type                                                         ENERGY
 GLOBAL| FFT library                                                       FFTW3
 GLOBAL| Diagonalization library                                       ScaLAPACK
 GLOBAL| Cholesky decomposition library                                ScaLAPACK
 GLOBAL| DGEMM library                                                      BLAS
 GLOBAL| Direct generalized diagonalization requested                          F
 GLOBAL| Orthonormality check for eigenvectors                          DISABLED
 GLOBAL| Matrix multiplication library                                 ScaLAPACK
 GLOBAL| All-to-all communication in single precision                          F
 GLOBAL| FFTs using library dependent lengths                                  F
 GLOBAL| Grid backend                                                       AUTO
 GLOBAL| Global print level                                               MEDIUM
 GLOBAL| MPI I/O enabled                                                       T
 GLOBAL| Total number of message passing processes                            16
 GLOBAL| Number of distributed systems (nodes)                                 1
 GLOBAL| Number of threads for this process                                    1
 GLOBAL| This output is from process                                           0
 GLOBAL| OpenMP stack size per thread (OMP_STACKSIZE)                        16M
 GLOBAL| CPU model name                          AMD EPYC 9V74 80-Core Processor
 GLOBAL| CPUID                                                              1002

 MEMORY| system memory details [Kb]
 MEMORY|                        rank 0           min           max       average
 MEMORY| MemTotal            263924000     263924000     263924000     263924000
 MEMORY| MemFree             235856260     235856260     235856260     235856260
 MEMORY| Buffers                411724        411724        411724        411724
 MEMORY| Cached               19222300      19222300      19222300      19222300
 MEMORY| Slab                  2085244       2085244       2085244       2085244
 MEMORY| SReclaimable          1687024       1687024       1687024       1687024
 MEMORY| MemLikelyFree       257177308     257177308     257177308     257177308


 *** Fundamental physical constants (SI units) ***

 *** Literature: B. J. Mohr and B. N. Taylor,
 ***             CODATA recommended values of the fundamental physical
 ***             constants: 2006, Web Version 5.1
 ***             http://physics.nist.gov/constants

 Speed of light in vacuum [m/s]                             2.99792458000000E+08
 Magnetic constant or permeability of vacuum [N/A**2]       1.25663706143592E-06
 Electric constant or permittivity of vacuum [F/m]          8.85418781762039E-12
 Planck constant (h) [J*s]                                  6.62606896000000E-34
 Planck constant (h-bar) [J*s]                              1.05457162825177E-34
 Elementary charge [C]                                      1.60217648700000E-19
 Electron mass [kg]                                         9.10938215000000E-31
 Electron g factor [ ]                                     -2.00231930436220E+00
 Proton mass [kg]                                           1.67262163700000E-27
 Fine-structure constant                                    7.29735253760000E-03
 Rydberg constant [1/m]                                     1.09737315685270E+07
 Avogadro constant [1/mol]                                  6.02214179000000E+23
 Boltzmann constant [J/K]                                   1.38065040000000E-23
 Atomic mass unit [kg]                                      1.66053878200000E-27
 Bohr radius [m]                                            5.29177208590000E-11

 *** Conversion factors ***

 [u] -> [a.u.]                                              1.82288848426455E+03
 [Angstrom] -> [Bohr] = [a.u.]                              1.88972613288564E+00
 [a.u.] = [Bohr] -> [Angstrom]                              5.29177208590000E-01
 [a.u.] -> [s]                                              2.41888432650478E-17
 [a.u.] -> [fs]                                             2.41888432650478E-02
 [a.u.] -> [J]                                              4.35974393937059E-18
 [a.u.] -> [N]                                              8.23872205491840E-08
 [a.u.] -> [K]                                              3.15774647902944E+05
 [a.u.] -> [kJ/mol]                                         2.62549961709828E+03
 [a.u.] -> [kcal/mol]                                       6.27509468713739E+02
 [a.u.] -> [Pa]                                             2.94210107994716E+13
 [a.u.] -> [bar]                                            2.94210107994716E+08
 [a.u.] -> [atm]                                            2.90362800883016E+08
 [a.u.] -> [eV]                                             2.72113838565563E+01
 [a.u.] -> [Hz]                                             6.57968392072181E+15
 [a.u.] -> [1/cm] (wave numbers)                            2.19474631370540E+05
 [a.u./Bohr**2] -> [1/cm]                                   5.14048714338585E+03
 

 CELL| Volume [angstrom^3]:                                         50540.000000
 CELL| Vector a [angstrom]:      38.000     0.000     0.000   |a| =    38.000000
 CELL| Vector b [angstrom]:       0.000    38.000     0.000   |b| =    38.000000
 CELL| Vector c [angstrom]:       0.000     0.000    35.000   |c| =    35.000000
 CELL| Angle (b,c), alpha [degree]:                                    90.000000
 CELL| Angle (a,c), beta  [degree]:                                    90.000000
 CELL| Angle (a,b), gamma [degree]:                                    90.000000
 CELL| Numerically orthorhombic:                                             YES
 CELL| Periodicity                                                          NONE

 CELL_REF| Volume [angstrom^3]:                                     50540.000000
 CELL_REF| Vector a [angstrom    38.000     0.000     0.000   |a| =    38.000000
 CELL_REF| Vector b [angstrom     0.000    38.000     0.000   |b| =    38.000000
 CELL_REF| Vector c [angstrom     0.000     0.000    35.000   |c| =    35.000000
 CELL_REF| Angle (b,c), alpha [degree]:                                90.000000
 CELL_REF| Angle (a,c), beta  [degree]:                                90.000000
 CELL_REF| Angle (a,b), gamma [degree]:                                90.000000
 CELL_REF| Numerically orthorhombic:                                         YES
 CELL_REF| Periodicity                                                      NONE

 GENERATE|  Preliminary Number of Bonds generated:                             0
 GENERATE|  Achieved consistency in connectivity generation.

 *******************************************************************************
 *******************************************************************************
 **                                                                           **
 **     #####                         ##              ##                      **
 **    ##   ##            ##          ##              ##                      **
 **   ##     ##                       ##            ######                    **
 **   ##     ##  ##   ##  ##   #####  ##  ##   ####   ##    #####    #####    **
 **   ##     ##  ##   ##  ##  ##      ## ##   ##      ##   ##   ##  ##   ##   **
 **   ##  ## ##  ##   ##  ##  ##      ####     ###    ##   ######   ######    **
 **    ##  ###   ##   ##  ##  ##      ## ##      ##   ##   ##       ##        **
 **     #######   #####   ##   #####  ##  ##  ####    ##    #####   ##        **
 **           ##                                                    ##        **
 **                                                                           **
 **                                                ... make the atoms dance   **
 **                                                                           **
 **            Copyright (C) by CP2K developers group (2000-2026)             **
 **                      J. Chem. Phys. 152, 194103 (2020)                    **
 **                                                                           **
 *******************************************************************************

 DFT| Spin restricted Kohn-Sham (RKS) calculation                            RKS
 DFT| Multiplicity                                                             1
 DFT| Number of spin states                                                    1
 DFT| Charge                                                                   0
 DFT| Self-interaction correction (SIC)                                       NO
 DFT| Cutoffs: density                                              1.000000E-10
 DFT|          gradient                                             1.000000E-10
 DFT|          tau                                                  1.000000E-10
 DFT|          cutoff_smoothing_range                               0.000000E+00
 DFT| XC density smoothing                                                  NONE
 DFT| XC derivatives                                                          PW

 FUNCTIONAL| GAUXC:
 FUNCTIONAL| Functional computed by GauXC Skala model aug-s0-funv2-cpu.fun      


 QS| Method:                                                                 GPW
 QS| Density plane wave grid type                        NON-SPHERICAL FULLSPACE
 QS| Number of grid levels:                                                    4
 QS| Density cutoff [a.u.]:                                                500.0
 QS| Multi grid cutoff [a.u.]: 1) grid level                               500.0
 QS|                           2) grid level                               166.7
 QS|                           3) grid level                                55.6
 QS|                           4) grid level                                18.5
 QS| Grid level progression factor:                                          3.0
 QS| Relative density cutoff [a.u.]:                                        30.0
 QS| Interaction thresholds: eps_pgf_orb:                                1.0E-05
 QS|                         eps_filter_matrix:                          0.0E+00
 QS|                         eps_core_charge:                            1.0E-12
 QS|                         eps_rho_gspace:                             1.0E-10
 QS|                         eps_rho_rspace:                             1.0E-10
 QS|                         eps_gvg_rspace:                             1.0E-05
 QS|                         eps_ppl:                                    1.0E-02
 QS|                         eps_ppnl:                                   1.0E-07


 ATOMIC KIND INFORMATION

  1. Atomic kind: N                                     Number of atoms:       2

     Orbital Basis Set                                   TZVP-MOLOPT-SCAN-GTH-q5

       Number of orbital shell sets:                                           1
       Number of orbital shells:                                               7
       Number of primitive Cartesian functions:                                5
       Number of Cartesian basis functions:                                   18
       Number of spherical basis functions:                                   17
       Norm type:                                                              2

       Normalised Cartesian orbitals:

                        Set   Shell   Orbital            Exponent    Coefficient

                          1       1    2s                7.741240      -0.372569
                                                         2.739304      -0.219396
                                                         1.077565       0.278149
                                                         0.425476       0.232020
                                                         0.142415       0.034612

                          1       2    3s                7.741240       0.271946
                                                         2.739304       0.236866
                                                         1.077565      -0.248170
                                                         0.425476      -0.061031
                                                         0.142415       0.200154

                          1       3    4s                7.741240      -1.413950
                                                         2.739304      -2.318830
                                                         1.077565       1.978599
                                                         0.425476      -0.833623
                                                         0.142415       0.105972

                          1       4    3px               7.741240      -1.168229
                                                         2.739304      -0.942518
                                                         1.077565      -0.541668
                                                         0.425476      -0.212751
                                                         0.142415      -0.025014
                          1       4    3py               7.741240      -1.168229
                                                         2.739304      -0.942518
                                                         1.077565      -0.541668
                                                         0.425476      -0.212751
                                                         0.142415      -0.025014
                          1       4    3pz               7.741240      -1.168229
                                                         2.739304      -0.942518
                                                         1.077565      -0.541668
                                                         0.425476      -0.212751
                                                         0.142415      -0.025014

                          1       5    4px               7.741240       0.928701
                                                         2.739304       0.844788
                                                         1.077565       0.526172
                                                         0.425476       0.069589
                                                         0.142415      -0.132325
                          1       5    4py               7.741240       0.928701
                                                         2.739304       0.844788
                                                         1.077565       0.526172
                                                         0.425476       0.069589
                                                         0.142415      -0.132325
                          1       5    4pz               7.741240       0.928701
                                                         2.739304       0.844788
                                                         1.077565       0.526172
                                                         0.425476       0.069589
                                                         0.142415      -0.132325

                          1       6    5px               7.741240       1.578027
                                                         2.739304       2.303105
                                                         1.077565       1.543896
                                                         0.425476      -0.542746
                                                         0.142415       0.030053
                          1       6    5py               7.741240       1.578027
                                                         2.739304       2.303105
                                                         1.077565       1.543896
                                                         0.425476      -0.542746
                                                         0.142415       0.030053
                          1       6    5pz               7.741240       1.578027
                                                         2.739304       2.303105
                                                         1.077565       1.543896
                                                         0.425476      -0.542746
                                                         0.142415       0.030053

                          1       7    4dx2              7.741240      -0.128620
                                                         2.739304       0.958133
                                                         1.077565       0.733739
                                                         0.425476       0.247613
                                                         0.142415      -0.003923
                          1       7    4dxy              7.741240      -0.222777
                                                         2.739304       1.659536
                                                         1.077565       1.270873
                                                         0.425476       0.428878
                                                         0.142415      -0.006794
                          1       7    4dxz              7.741240      -0.222777
                                                         2.739304       1.659536
                                                         1.077565       1.270873
                                                         0.425476       0.428878
                                                         0.142415      -0.006794
                          1       7    4dy2              7.741240      -0.128620
                                                         2.739304       0.958133
                                                         1.077565       0.733739
                                                         0.425476       0.247613
                                                         0.142415      -0.003923
                          1       7    4dyz              7.741240      -0.222777
                                                         2.739304       1.659536
                                                         1.077565       1.270873
                                                         0.425476       0.428878
                                                         0.142415      -0.006794
                          1       7    4dz2              7.741240      -0.128620
                                                         2.739304       0.958133
                                                         1.077565       0.733739
                                                         0.425476       0.247613
                                                         0.142415      -0.003923

       Atomic covalent radius [Angstrom]:                                  0.750

       Atomic van der Waals radius [Angstrom]:                             1.550

     GTH Potential information for                                   GTH-SCAN-q5

       Description:                       Goedecker-Teter-Hutter pseudopotential
                                           Goedecker et al., PRB 54, 1703 (1996)
                                          Hartwigsen et al., PRB 58, 3641 (1998)
                                                      Krack, TCA 114, 145 (2005)

       Gaussian exponent of the core charge distribution:               6.165682
       Electronic configuration (s p d ...):                       2   3   0   0

       Parameters of the local part of the GTH pseudopotential:

                          rloc        C1          C2          C3          C4
                        0.284770  -12.418435    1.850749

       Parameters of the non-local part of the GTH pseudopotential:

                   l      r(l)      h(i,j,l)

                   0    0.256275   13.645095

  2. Atomic kind: C                                     Number of atoms:      13

     Orbital Basis Set                                   TZVP-MOLOPT-SCAN-GTH-q4

       Number of orbital shell sets:                                           1
       Number of orbital shells:                                               7
       Number of primitive Cartesian functions:                                5
       Number of Cartesian basis functions:                                   18
       Number of spherical basis functions:                                   17
       Norm type:                                                              2

       Normalised Cartesian orbitals:

                        Set   Shell   Orbital            Exponent    Coefficient

                          1       1    2s                5.623460      -0.349209
                                                         2.098559      -0.253875
                                                         0.820511       0.248209
                                                         0.317331       0.216287
                                                         0.111116       0.012850

                          1       2    3s                5.623460       0.160090
                                                         2.098559       0.144150
                                                         0.820511      -0.103023
                                                         0.317331       0.001075
                                                         0.111116       0.142208

                          1       3    4s                5.623460      -1.207693
                                                         2.098559      -1.266789
                                                         0.820511       0.734368
                                                         0.317331      -0.329587
                                                         0.111116       0.046451

                          1       4    3px               5.623460      -0.717953
                                                         2.098559      -0.559659
                                                         0.820511      -0.405261
                                                         0.317331      -0.145150
                                                         0.111116      -0.020126
                          1       4    3py               5.623460      -0.717953
                                                         2.098559      -0.559659
                                                         0.820511      -0.405261
                                                         0.317331      -0.145150
                                                         0.111116      -0.020126
                          1       4    3pz               5.623460      -0.717953
                                                         2.098559      -0.559659
                                                         0.820511      -0.405261
                                                         0.317331      -0.145150
                                                         0.111116      -0.020126

                          1       5    4px               5.623460       0.831730
                                                         2.098559       0.877901
                                                         0.820511       0.415963
                                                         0.317331       0.032156
                                                         0.111116      -0.090730
                          1       5    4py               5.623460       0.831730
                                                         2.098559       0.877901
                                                         0.820511       0.415963
                                                         0.317331       0.032156
                                                         0.111116      -0.090730
                          1       5    4pz               5.623460       0.831730
                                                         2.098559       0.877901
                                                         0.820511       0.415963
                                                         0.317331       0.032156
                                                         0.111116      -0.090730

                          1       6    5px               5.623460       1.619151
                                                         2.098559       2.412091
                                                         0.820511       0.659876
                                                         0.317331      -0.314050
                                                         0.111116       0.028213
                          1       6    5py               5.623460       1.619151
                                                         2.098559       2.412091
                                                         0.820511       0.659876
                                                         0.317331      -0.314050
                                                         0.111116       0.028213
                          1       6    5pz               5.623460       1.619151
                                                         2.098559       2.412091
                                                         0.820511       0.659876
                                                         0.317331      -0.314050
                                                         0.111116       0.028213

                          1       7    4dx2              5.623460      -2.005729
                                                         2.098559       1.064556
                                                         0.820511       0.464044
                                                         0.317331       0.120863
                                                         0.111116       0.003311
                          1       7    4dxy              5.623460      -3.474025
                                                         2.098559       1.843865
                                                         0.820511       0.803748
                                                         0.317331       0.209340
                                                         0.111116       0.005735
                          1       7    4dxz              5.623460      -3.474025
                                                         2.098559       1.843865
                                                         0.820511       0.803748
                                                         0.317331       0.209340
                                                         0.111116       0.005735
                          1       7    4dy2              5.623460      -2.005729
                                                         2.098559       1.064556
                                                         0.820511       0.464044
                                                         0.317331       0.120863
                                                         0.111116       0.003311
                          1       7    4dyz              5.623460      -3.474025
                                                         2.098559       1.843865
                                                         0.820511       0.803748
                                                         0.317331       0.209340
                                                         0.111116       0.005735
                          1       7    4dz2              5.623460      -2.005729
                                                         2.098559       1.064556
                                                         0.820511       0.464044
                                                         0.317331       0.120863
                                                         0.111116       0.003311

       Atomic covalent radius [Angstrom]:                                  0.770

       Atomic van der Waals radius [Angstrom]:                             1.700

     GTH Potential information for                                   GTH-SCAN-q4

       Description:                       Goedecker-Teter-Hutter pseudopotential
                                           Goedecker et al., PRB 54, 1703 (1996)
                                          Hartwigsen et al., PRB 58, 3641 (1998)
                                                      Krack, TCA 114, 145 (2005)

       Gaussian exponent of the core charge distribution:               4.454624
       Electronic configuration (s p d ...):                       2   2   0   0

       Parameters of the local part of the GTH pseudopotential:

                          rloc        C1          C2          C3          C4
                        0.335027   -8.822616    1.299117

       Parameters of the non-local part of the GTH pseudopotential:

                   l      r(l)      h(i,j,l)

                   0    0.303798    9.625763

  3. Atomic kind: H                                     Number of atoms:      16

     Orbital Basis Set                                   TZVP-MOLOPT-SCAN-GTH-q1

       Number of orbital shell sets:                                           1
       Number of orbital shells:                                               4
       Number of primitive Cartesian functions:                                5
       Number of Cartesian basis functions:                                    6
       Number of spherical basis functions:                                    6
       Norm type:                                                              2

       Normalised Cartesian orbitals:

                        Set   Shell   Orbital            Exponent    Coefficient

                          1       1    2s                9.168765       0.095357
                                                         2.161194       0.125778
                                                         0.619868       0.162183
                                                         0.161316       0.074849
                                                         0.412255       0.090962

                          1       2    3s                9.168765      -0.435739
                                                         2.161194      -0.868971
                                                         0.619868      -0.406683
                                                         0.161316      -0.142964
                                                         0.412255       0.978336

                          1       3    4s                9.168765       0.385896
                                                         2.161194       1.113624
                                                         0.619868       0.043366
                                                         0.161316      -0.067676
                                                         0.412255       0.053421

                          1       4    3px               9.168765      -1.788640
                                                         2.161194       0.906920
                                                         0.619868       0.273605
                                                         0.161316       0.091389
                                                         0.412255       0.008094
                          1       4    3py               9.168765      -1.788640
                                                         2.161194       0.906920
                                                         0.619868       0.273605
                                                         0.161316       0.091389
                                                         0.412255       0.008094
                          1       4    3pz               9.168765      -1.788640
                                                         2.161194       0.906920
                                                         0.619868       0.273605
                                                         0.161316       0.091389
                                                         0.412255       0.008094

       Atomic covalent radius [Angstrom]:                                  0.320

       Atomic van der Waals radius [Angstrom]:                             1.090

     GTH Potential information for                                   GTH-SCAN-q1

       Description:                       Goedecker-Teter-Hutter pseudopotential
                                           Goedecker et al., PRB 54, 1703 (1996)
                                          Hartwigsen et al., PRB 58, 3641 (1998)
                                                      Krack, TCA 114, 145 (2005)

       Gaussian exponent of the core charge distribution:              12.429142
       Electronic configuration (s p d ...):                       1   0   0   0

       Parameters of the local part of the GTH pseudopotential:

                          rloc        C1          C2          C3          C4
                        0.200569   -4.177243    0.723816

  4. Atomic kind: O                                     Number of atoms:       2

     Orbital Basis Set                                   TZVP-MOLOPT-SCAN-GTH-q6

       Number of orbital shell sets:                                           1
       Number of orbital shells:                                               7
       Number of primitive Cartesian functions:                                5
       Number of Cartesian basis functions:                                   18
       Number of spherical basis functions:                                   17
       Norm type:                                                              2

       Normalised Cartesian orbitals:

                        Set   Shell   Orbital            Exponent    Coefficient

                          1       1    2s               10.257817      -0.419073
                                                         3.644287      -0.215759
                                                         1.402225       0.311285
                                                         0.522057       0.263821
                                                         0.168189       0.045116

                          1       2    3s               10.257817       0.362459
                                                         3.644287       0.180656
                                                         1.402225      -0.203664
                                                         0.522057      -0.159611
                                                         0.168189       0.244682

                          1       3    4s               10.257817      -2.413417
                                                         3.644287      -0.850901
                                                         1.402225       0.170654
                                                         0.522057      -0.131214
                                                         0.168189       0.003984

                          1       4    3px              10.257817      -1.672017
                                                         3.644287      -1.345385
                                                         1.402225      -0.751048
                                                         0.522057      -0.276645
                                                         0.168189      -0.033014
                          1       4    3py              10.257817      -1.672017
                                                         3.644287      -1.345385
                                                         1.402225      -0.751048
                                                         0.522057      -0.276645
                                                         0.168189      -0.033014
                          1       4    3pz              10.257817      -1.672017
                                                         3.644287      -1.345385
                                                         1.402225      -0.751048
                                                         0.522057      -0.276645
                                                         0.168189      -0.033014

                          1       5    4px              10.257817       1.559903
                                                         3.644287       0.989060
                                                         1.402225       0.672543
                                                         0.522057       0.141420
                                                         0.168189      -0.167208
                          1       5    4py              10.257817       1.559903
                                                         3.644287       0.989060
                                                         1.402225       0.672543
                                                         0.522057       0.141420
                                                         0.168189      -0.167208
                          1       5    4pz              10.257817       1.559903
                                                         3.644287       0.989060
                                                         1.402225       0.672543
                                                         0.522057       0.141420
                                                         0.168189      -0.167208

                          1       6    5px              10.257817       5.420840
                                                         3.644287       0.742781
                                                         1.402225       2.786765
                                                         0.522057      -0.733751
                                                         0.168189       0.023040
                          1       6    5py              10.257817       5.420840
                                                         3.644287       0.742781
                                                         1.402225       2.786765
                                                         0.522057      -0.733751
                                                         0.168189       0.023040
                          1       6    5pz              10.257817       5.420840
                                                         3.644287       0.742781
                                                         1.402225       2.786765
                                                         0.522057      -0.733751
                                                         0.168189       0.023040

                          1       7    4dx2             10.257817      -1.249026
                                                         3.644287       1.475740
                                                         1.402225       0.993741
                                                         0.522057       0.395456
                                                         0.168189      -0.006736
                          1       7    4dxy             10.257817      -2.163376
                                                         3.644287       2.556057
                                                         1.402225       1.721210
                                                         0.522057       0.684950
                                                         0.168189      -0.011667
                          1       7    4dxz             10.257817      -2.163376
                                                         3.644287       2.556057
                                                         1.402225       1.721210
                                                         0.522057       0.684950
                                                         0.168189      -0.011667
                          1       7    4dy2             10.257817      -1.249026
                                                         3.644287       1.475740
                                                         1.402225       0.993741
                                                         0.522057       0.395456
                                                         0.168189      -0.006736
                          1       7    4dyz             10.257817      -2.163376
                                                         3.644287       2.556057
                                                         1.402225       1.721210
                                                         0.522057       0.684950
                                                         0.168189      -0.011667
                          1       7    4dz2             10.257817      -1.249026
                                                         3.644287       1.475740
                                                         1.402225       0.993741
                                                         0.522057       0.395456
                                                         0.168189      -0.006736

       Atomic covalent radius [Angstrom]:                                  0.730

       Atomic van der Waals radius [Angstrom]:                             1.520

     GTH Potential information for                                   GTH-SCAN-q6

       Description:                       Goedecker-Teter-Hutter pseudopotential
                                           Goedecker et al., PRB 54, 1703 (1996)
                                          Hartwigsen et al., PRB 58, 3641 (1998)
                                                      Krack, TCA 114, 145 (2005)

       Gaussian exponent of the core charge distribution:               8.656553
       Electronic configuration (s p d ...):                       2   4   0   0

       Parameters of the local part of the GTH pseudopotential:

                          rloc        C1          C2          C3          C4
                        0.240333  -16.794986    2.452457

       Parameters of the non-local part of the GTH pseudopotential:

                   l      r(l)      h(i,j,l)

                   0    0.221500   18.441562


 MOLECULE KIND INFORMATION


 All atoms are their own molecule, skipping detailed information


 TOTAL NUMBERS AND MAXIMUM NUMBERS

  Total number of            - Atomic kinds:                                   4
                             - Atoms:                                         33
                             - Shell sets:                                    33
                             - Shells:                                       183
                             - Primitive Cartesian functions:                165
                             - Cartesian basis functions:                    402
                             - Spherical basis functions:                    385

  Maximum angular momentum of- Orbital basis functions:                        2
                             - Local part of the GTH pseudopotential:          2
                             - Non-local part of the GTH pseudopotential:      0


 MODULE QUICKSTEP: ATOMIC COORDINATES IN ANGSTROM

   Atom Kind Element         X             Y             Z       Z(eff)     Mass
      1    1 N     7     18.890565     21.851520     17.532520   5.0000  14.0067
      2    2 C     6     20.105175     21.547280     16.952980   4.0000  12.0107
      3    2 C     6     20.093775     20.244660     16.500060   4.0000  12.0107
      4    2 C     6     18.793315     19.724570     16.811840   4.0000  12.0107
      5    2 C     6     18.191075     18.468540     16.580520   4.0000  12.0107
      6    2 C     6     16.888375     18.279570     17.015870   4.0000  12.0107
      7    2 C     6     16.175035     19.317410     17.667360   4.0000  12.0107
      8    2 C     6     16.747445     20.555850     17.890420   4.0000  12.0107
      9    2 C     6     18.065635     20.751630     17.453420   4.0000  12.0107
     10    3 H     1     18.630515     22.751570     17.891810   1.0000   1.0079
     11    3 H     1     20.886615     22.288470     16.899970   1.0000   1.0079
     12    3 H     1     18.746245     17.686910     16.084170   1.0000   1.0079
     13    3 H     1     15.161265     19.111830     17.982080   1.0000   1.0079
     14    3 H     1     16.187335     21.340140     18.383270   1.0000   1.0079
     15    4 O     8     16.187155     17.111970     16.873390   6.0000  15.9994
     16    2 C     6     16.837095     16.079550     16.144470   4.0000  12.0107
     17    3 H     1     17.762675     15.764350     16.629710   1.0000   1.0079
     18    3 H     1     17.061375     16.400580     15.124970   1.0000   1.0079
     19    3 H     1     16.138875     15.248430     16.118940   1.0000   1.0079
     20    2 C     6     21.217235     19.474670     15.876960   4.0000  12.0107
     21    2 C     6     22.156105     18.846830     16.923260   4.0000  12.0107
     22    1 N     7     21.463745     18.128580     17.980940   5.0000  14.0067
     23    2 C     6     20.854055     16.930740     17.756510   4.0000  12.0107
     24    2 C     6     20.017205     16.415800     18.909270   4.0000  12.0107
     25    3 H     1     21.816255     20.117510     15.227590   1.0000   1.0079
     26    3 H     1     20.810065     18.678110     15.254110   1.0000   1.0079
     27    3 H     1     22.746425     19.628020     17.402650   1.0000   1.0079
     28    3 H     1     22.838735     18.153040     16.434000   1.0000   1.0079
     29    3 H     1     21.164055     18.654190     18.783360   1.0000   1.0079
     30    4 O     8     20.968595     16.321320     16.699070   6.0000  15.9994
     31    3 H     1     19.001555     16.800070     18.803480   1.0000   1.0079
     32    3 H     1     20.408255     16.732680     19.875030   1.0000   1.0079
     33    3 H     1     19.987085     15.330830     18.864100   1.0000   1.0079



 SCF PARAMETERS         Density guess:                                    ATOMIC
                        --------------------------------------------------------
                        max_scf:                                             100
                        max_scf_history:                                       0
                        max_diis:                                              4
                        --------------------------------------------------------
                        eps_scf:                                        1.00E-05
                        eps_scf_history:                                0.00E+00
                        eps_diis:                                       1.00E-01
                        eps_eigval:                                     1.00E-05
                        --------------------------------------------------------
                        level_shift [a.u.]:                             0.000000
                        --------------------------------------------------------
                        Mixing method:                           DIRECT_P_MIXING
                        --------------------------------------------------------
                        No outer SCF

 PW_GRID| Information for grid number                                          1
 PW_GRID| Grid distributed over                                    16 processors
 PW_GRID| Real space group dimensions                                    16    1
 PW_GRID| the grid is blocked:                                                NO
 PW_GRID| Cutoff [a.u.]                                                    500.0
 PW_GRID| spherical cutoff:                                                   NO
 PW_GRID|   Bounds   1           -364     364                Points:         729
 PW_GRID|   Bounds   2           -364     364                Points:         729
 PW_GRID|   Bounds   3           -337     337                Points:         675
 PW_GRID| Volume element (a.u.^3)  0.9508E-03     Volume (a.u.^3)    341060.8298
 PW_GRID| Grid span                                                    FULLSPACE
 PW_GRID|   Distribution                         Average         Max         Min
 PW_GRID|   G-Vectors                         22420167.2    22420395    22419666
 PW_GRID|   G-Rays                               30754.7       30755       30754
 PW_GRID|   Real Space Points                 22420167.2    22635450    22143375

 PW_GRID| Information for grid number                                          2
 PW_GRID| Number of the reference grid                                         1
 PW_GRID| Grid distributed over                                    16 processors
 PW_GRID| Real space group dimensions                                    16    1
 PW_GRID| the grid is blocked:                                                NO
 PW_GRID| Cutoff [a.u.]                                                    166.7
 PW_GRID| spherical cutoff:                                                   NO
 PW_GRID|   Bounds   1           -216     215                Points:         432
 PW_GRID|   Bounds   2           -216     215                Points:         432
 PW_GRID|   Bounds   3           -200     199                Points:         400
 PW_GRID| Volume element (a.u.^3)  0.4569E-02     Volume (a.u.^3)    341060.8298
 PW_GRID| Grid span                                                    FULLSPACE
 PW_GRID|   Distribution                         Average         Max         Min
 PW_GRID|   G-Vectors                          4665600.0     4666464     4664736
 PW_GRID|   G-Rays                               10800.0       10802       10798
 PW_GRID|   Real Space Points                  4665600.0     4665600     4665600

 PW_GRID| Information for grid number                                          3
 PW_GRID| Number of the reference grid                                         1
 PW_GRID| Grid distributed over                                    16 processors
 PW_GRID| Real space group dimensions                                    16    1
 PW_GRID| the grid is blocked:                                                NO
 PW_GRID| Cutoff [a.u.]                                                     55.6
 PW_GRID| spherical cutoff:                                                   NO
 PW_GRID|   Bounds   1           -121     121                Points:         243
 PW_GRID|   Bounds   2           -121     121                Points:         243
 PW_GRID|   Bounds   3           -112     112                Points:         225
 PW_GRID| Volume element (a.u.^3)  0.2567E-01     Volume (a.u.^3)    341060.8298
 PW_GRID| Grid span                                                    FULLSPACE
 PW_GRID|   Distribution                         Average         Max         Min
 PW_GRID|   G-Vectors                           830376.6      831060      830088
 PW_GRID|   G-Rays                                3417.2        3420        3416
 PW_GRID|   Real Space Points                   830376.6      874800      820125

 PW_GRID| Information for grid number                                          4
 PW_GRID| Number of the reference grid                                         1
 PW_GRID| Grid distributed over                                    16 processors
 PW_GRID| Real space group dimensions                                    16    1
 PW_GRID| the grid is blocked:                                                NO
 PW_GRID| Cutoff [a.u.]                                                     18.5
 PW_GRID| spherical cutoff:                                                   NO
 PW_GRID|   Bounds   1            -72      71                Points:         144
 PW_GRID|   Bounds   2            -72      71                Points:         144
 PW_GRID|   Bounds   3            -67      67                Points:         135
 PW_GRID| Volume element (a.u.^3)  0.1218         Volume (a.u.^3)    341060.8298
 PW_GRID| Grid span                                                    FULLSPACE
 PW_GRID|   Distribution                         Average         Max         Min
 PW_GRID|   G-Vectors                           174960.0      175536      174528
 PW_GRID|   G-Rays                                1215.0        1219        1212
 PW_GRID|   Real Space Points                   174960.0      174960      174960

 POISSON| Solver                                                        ANALYTIC
 POISSON| Periodicity                                                       NONE

 RS_GRID| Information for grid number                                          1
 RS_GRID|   Bounds   1           -364     364                Points:         729
 RS_GRID|   Bounds   2           -364     364                Points:         729
 RS_GRID|   Bounds   3           -337     337                Points:         675
 RS_GRID| Real space distribution over                                  4 groups
 RS_GRID| Real space distribution along direction                              1
 RS_GRID| Border size                                                         26
 RS_GRID| Real space distribution over                                  4 groups
 RS_GRID| Real space distribution along direction                              2
 RS_GRID| Border size                                                         26
 RS_GRID|   Distribution                         Average         Max         Min
 RS_GRID|   Planes                                 234.2         235         234
 RS_GRID|   Distribution                         Average         Max         Min
 RS_GRID|   Planes                                 234.2         235         234

 RS_GRID| Information for grid number                                          2
 RS_GRID|   Bounds   1           -216     215                Points:         432
 RS_GRID|   Bounds   2           -216     215                Points:         432
 RS_GRID|   Bounds   3           -200     199                Points:         400
 RS_GRID| Real space distribution over                                  4 groups
 RS_GRID| Real space distribution along direction                              1
 RS_GRID| Border size                                                         26
 RS_GRID| Real space distribution over                                  4 groups
 RS_GRID| Real space distribution along direction                              2
 RS_GRID| Border size                                                         26
 RS_GRID|   Distribution                         Average         Max         Min
 RS_GRID|   Planes                                 160.0         160         160
 RS_GRID|   Distribution                         Average         Max         Min
 RS_GRID|   Planes                                 160.0         160         160

 RS_GRID| Information for grid number                                          3
 RS_GRID|   Bounds   1           -121     121                Points:         243
 RS_GRID|   Bounds   2           -121     121                Points:         243
 RS_GRID|   Bounds   3           -112     112                Points:         225
 RS_GRID| Real space fully replicated
 RS_GRID| Group size                                                           1

 RS_GRID| Information for grid number                                          4
 RS_GRID|   Bounds   1            -72      71                Points:         144
 RS_GRID|   Bounds   2            -72      71                Points:         144
 RS_GRID|   Bounds   3            -67      67                Points:         135
 RS_GRID| Real space fully replicated
 RS_GRID| Group size                                                           1

 Extrapolation method: initial_guess

 Atomic guess: The first density matrix is obtained in terms of atomic orbitals
               and electronic configurations assigned to each atomic kind

 Guess for atomic kind: N

 Electronic structure
    Total number of core electrons                                          2.00
    Total number of valence electrons                                       5.00
    Total number of electrons                                               7.00
    Multiplicity                                                   not specified
    S   [  2.00] 2.00
    P      3.00


 *******************************************************************************
                  Iteration          Convergence                     Energy [au]
 *******************************************************************************
                          1        0.346146                      -9.510631084718
                          2        0.293961                      -9.519323476596
                          3        0.462882E-02                  -9.543943533173
                          4        0.376937E-03                  -9.543951832803
                          5        0.269242E-05                  -9.543951869815
                          6        0.125879E-05                  -9.543951869817
                          7        0.339213E-08                  -9.543951869817

 Energy components [Hartree]           Total Energy ::           -9.543951869817
                                        Band Energy ::           -2.045283632630
                                     Kinetic Energy ::            6.768365898222
                                   Potential Energy ::          -16.312317768040
                                      Virial (-V/T) ::            2.410082139963
                                        Core Energy ::          -15.546390569991
                                          XC Energy ::           -2.165368606550
                                     Coulomb Energy ::            8.167807306724
                       Total Pseudopotential Energy ::          -22.351839014438
                       Local Pseudopotential Energy ::          -23.300988197283
                    Nonlocal Pseudopotential Energy ::            0.949149182846
                                        Confinement ::            0.370825462242

 Orbital energies  State     L     Occupation   Energy[a.u.]          Energy[eV]

                       1     0          2.000      -0.656585          -17.866573

                       1     1          3.000      -0.244038           -6.640617


 Total Electron Density at R=0:                                         0.000014

 Guess for atomic kind: C

 Electronic structure
    Total number of core electrons                                          2.00
    Total number of valence electrons                                       4.00
    Total number of electrons                                               6.00
    Multiplicity                                                   not specified
    S   [  2.00] 2.00
    P      2.00


 *******************************************************************************
                  Iteration          Convergence                     Energy [au]
 *******************************************************************************
                          1        0.124377                      -5.269415449983
                          2        0.880091E-01                  -5.274432015385
                          3        0.424095E-03                  -5.279419090830
                          4        0.118108E-03                  -5.279419164687
                          5        0.144057E-06                  -5.279419172500

 Energy components [Hartree]           Total Energy ::           -5.279419172500
                                        Band Energy ::           -1.313739125276
                                     Kinetic Energy ::            3.405940495234
                                   Potential Energy ::           -8.685359667734
                                      Virial (-V/T) ::            2.550062069460
                                        Core Energy ::           -8.290068838701
                                          XC Energy ::           -1.377173731606
                                     Coulomb Energy ::            4.387823397806
                       Total Pseudopotential Energy ::          -11.730281123094
                       Local Pseudopotential Energy ::          -12.376528803709
                    Nonlocal Pseudopotential Energy ::            0.646247680614
                                        Confinement ::            0.342717891594

 Orbital energies  State     L     Occupation   Energy[a.u.]          Energy[eV]

                       1     0          2.000      -0.480601          -13.077809

                       1     1          2.000      -0.176269           -4.796521


 Total Electron Density at R=0:                                         0.000000

 Guess for atomic kind: H

 Electronic structure
    Total number of core electrons                                          0.00
    Total number of valence electrons                                       1.00
    Total number of electrons                                               1.00
    Multiplicity                                                   not specified
    S      1.00


 *******************************************************************************
                  Iteration          Convergence                     Energy [au]
 *******************************************************************************
                          1        0.364523E-02                  -0.422484553466
                          2        0.146100E-03                  -0.422490428911
                          3        0.266755E-04                  -0.422490480125
                          4        0.362968E-08                  -0.422490480723

 Energy components [Hartree]           Total Energy ::           -0.422490480723
                                        Band Energy ::           -0.192735382727
                                     Kinetic Energy ::            0.477952444388
                                   Potential Energy ::           -0.900442925111
                                      Virial (-V/T) ::            1.883959242566
                                        Core Energy ::           -0.479166166213
                                          XC Energy ::           -0.248560768168
                                     Coulomb Energy ::            0.305236453657
                       Total Pseudopotential Energy ::           -0.975131101124
                       Local Pseudopotential Energy ::           -0.975131101124
                    Nonlocal Pseudopotential Energy ::            0.000000000000
                                        Confinement ::            0.180124905236

 Orbital energies  State     L     Occupation   Energy[a.u.]          Energy[eV]

                       1     0          1.000      -0.192735           -5.244596


 Total Electron Density at R=0:                                         0.249202

 Guess for atomic kind: O

 Electronic structure
    Total number of core electrons                                          2.00
    Total number of valence electrons                                       6.00
    Total number of electrons                                               8.00
    Multiplicity                                                   not specified
    S   [  2.00] 2.00
    P      4.00


 *******************************************************************************
                  Iteration          Convergence                     Energy [au]
 *******************************************************************************
                          1        0.767843                     -15.548688912140
                          2        0.707350                     -15.552891087148
                          3        0.233352E-01                 -15.638471141341
                          4        0.140601E-02                 -15.638569711398
                          5        0.207920E-04                 -15.638570020034
                          6        0.225984E-06                 -15.638570020103

 Energy components [Hartree]           Total Energy ::          -15.638570020103
                                        Band Energy ::           -2.987115069665
                                     Kinetic Energy ::           11.758429295155
                                   Potential Energy ::          -27.396999315258
                                      Virial (-V/T) ::            2.329988013497
                                        Core Energy ::          -26.117692585696
                                          XC Energy ::           -3.153357461230
                                     Coulomb Energy ::           13.632480026823
                       Total Pseudopotential Energy ::          -37.911237752663
                       Local Pseudopotential Energy ::          -39.187422590466
                    Nonlocal Pseudopotential Energy ::            1.276184837802
                                        Confinement ::            0.351158718120

 Orbital energies  State     L     Occupation   Energy[a.u.]          Energy[eV]

                       1     0          2.000      -0.854976          -23.265087

                       1     1          4.000      -0.319291           -8.688340


 Total Electron Density at R=0:                                         0.000001
 Re-scaling the density matrix to get the right number of electrons
                  # Electrons              Trace(P)               Scaling factor
                           90                90.000                        1.000

 Number of electrons:                                                         90
 Number of occupied orbitals:                                                 45
 Number of molecular orbitals:                                                45

 Number of orbital functions:                                                385
 Number of independent orbital functions:                                    385


 SCF WAVEFUNCTION OPTIMIZATION

  Step     Update method      Time    Convergence         Total energy    Change
  ------------------------------------------------------------------------------
     1 P_Mix/Diag. 0.40E+00   48.2     1.20184219      -134.4196661631 -1.34E+02
     2 P_Mix/Diag. 0.40E+00   55.9     0.62239722      -134.7722204900 -3.53E-01
     3 P_Mix/Diag. 0.40E+00   55.0     0.35316832      -134.9472501608 -1.75E-01
     4 P_Mix/Diag. 0.40E+00   54.8     0.20143529      -135.0513712171 -1.04E-01
     5 P_Mix/Diag. 0.40E+00   55.1     0.11310135      -135.1146763172 -6.33E-02
     6 P_Mix/Diag. 0.40E+00   54.1     0.06986680      -135.1531297263 -3.85E-02
     7 DIIS/Diag.  0.38E-02   54.3     0.04528552      -135.1764462536 -2.33E-02
     8 DIIS/Diag.  0.27E-02   54.9     0.00269127      -135.2120063283 -3.56E-02
     9 DIIS/Diag.  0.19E-02   56.1     0.00243126      -135.2120238940 -1.76E-05
    10 DIIS/Diag.  0.29E-02   54.7     0.00188683      -135.2120250691 -1.18E-06
    11 DIIS/Diag.  0.15E-02   54.5     0.00167715      -135.2120359736 -1.09E-05
    12 DIIS/Diag.  0.69E-03   54.6     0.00074699      -135.2120399680 -3.99E-06
    13 DIIS/Diag.  0.75E-03   54.4     0.00053017      -135.2120396205  3.48E-07
    14 DIIS/Diag.  0.21E-03   54.8     0.00018750      -135.2120404850 -8.64E-07
    15 DIIS/Diag.  0.15E-03   55.6     0.00010397      -135.2120405386 -5.36E-08
    16 DIIS/Diag.  0.50E-04   54.2     0.00002973      -135.2120405562 -1.76E-08
    17 DIIS/Diag.  0.18E-04   55.9     0.00002156      -135.2120405593 -3.12E-09
    18 DIIS/Diag.  0.17E-04   54.3     0.00002353      -135.2120405707 -1.15E-08
    19 DIIS/Diag.  0.16E-04   54.8     0.00001540      -135.2120405508  1.99E-08
    20 DIIS/Diag.  0.13E-04   54.4     0.00001104      -135.2120405561 -5.33E-09
    21 DIIS/Diag.  0.92E-05   54.3     0.00000622      -135.2120405583 -2.19E-09

  *** SCF run converged in    21 steps ***


  Electronic density on regular grids:        -89.9999999998        0.0000000002
  Core density on regular grids:               89.9999999938       -0.0000000062
  Total charge density on r-space grids:       -0.0000000059
  Total charge density g-space grids:          -0.0000000059

  Overlap energy of the core charge distribution:               0.00000566335031
  Self energy of the core charge distribution:               -331.68255774551824
  Core Hamiltonian energy:                                    101.04387713070751
  Hartree energy:                                             135.88460658583398
  Exchange-correlation energy:                                -40.45797219269875

  Total energy:                                              -135.21204055832519

 MO| EIGENVALUES AND OCCUPATION NUMBERS
 MO|
 MO|  Index      Eigenvalue [a.u.]        Eigenvalue [eV]             Occupation
 MO|      1              -1.028775             -27.994382               2.000000
 MO|      2              -0.999265             -27.191396               2.000000
 MO|      3              -0.945434             -25.726575               2.000000
 MO|      4              -0.887380             -24.146851               2.000000
 MO|      5              -0.801597             -21.812575               2.000000
 MO|      6              -0.766245             -20.850588               2.000000
 MO|      7              -0.724944             -19.726727               2.000000
 MO|      8              -0.707280             -19.246063               2.000000
 MO|      9              -0.695423             -18.923413               2.000000
 MO|     10              -0.678349             -18.458824               2.000000
 MO|     11              -0.658225             -17.911220               2.000000
 MO|     12              -0.614218             -16.713732               2.000000
 MO|     13              -0.581079             -15.811968               2.000000
 MO|     14              -0.561296             -15.273632               2.000000
 MO|     15              -0.550055             -14.967745               2.000000
 MO|     16              -0.526577             -14.328897               2.000000
 MO|     17              -0.510443             -13.889850               2.000000
 MO|     18              -0.482059             -13.117496               2.000000
 MO|     19              -0.475712             -12.944772               2.000000
 MO|     20              -0.460111             -12.520265               2.000000
 MO|     21              -0.444431             -12.093586               2.000000
 MO|     22              -0.435466             -11.849640               2.000000
 MO|     23              -0.431807             -11.750061               2.000000
 MO|     24              -0.424883             -11.561657               2.000000
 MO|     25              -0.411131             -11.187440               2.000000
 MO|     26              -0.407372             -11.085165               2.000000
 MO|     27              -0.403171             -10.970848               2.000000
 MO|     28              -0.393200             -10.699523               2.000000
 MO|     29              -0.382288             -10.402579               2.000000
 MO|     30              -0.373996             -10.176949               2.000000
 MO|     31              -0.372345             -10.132028               2.000000
 MO|     32              -0.366587              -9.975328               2.000000
 MO|     33              -0.362025              -9.851202               2.000000
 MO|     34              -0.347173              -9.447050               2.000000
 MO|     35              -0.337338              -9.179437               2.000000
 MO|     36              -0.327394              -8.908847               2.000000
 MO|     37              -0.324418              -8.827860               2.000000
 MO|     38              -0.319483              -8.693564               2.000000
 MO|     39              -0.297759              -8.102441               2.000000
 MO|     40              -0.277393              -7.548234               2.000000
 MO|     41              -0.261460              -7.114676               2.000000
 MO|     42              -0.236817              -6.444115               2.000000
 MO|     43              -0.224309              -6.103755               2.000000
 MO|     44              -0.196781              -5.354670               2.000000
 MO|     45              -0.188500              -5.129349               2.000000
 MO| Sum:                                                              90.000000
 MO| E(Fermi):           -0.188500 a.u.         -5.129349 eV


 !-----------------------------------------------------------------------------!
                     Mulliken Population Analysis

 #  Atom  Element  Kind  Atomic population                           Net charge
       1     N        1          5.133521                             -0.133521
       2     C        2          3.959575                              0.040425
       3     C        2          4.122173                             -0.122173
       4     C        2          3.653844                              0.346156
       5     C        2          4.364797                             -0.364797
       6     C        2          3.707013                              0.292987
       7     C        2          4.059212                             -0.059212
       8     C        2          4.154391                             -0.154391
       9     C        2          3.842851                              0.157149
      10     H        3          0.871636                              0.128364
      11     H        3          1.019444                             -0.019444
      12     H        3          1.004763                             -0.004763
      13     H        3          1.003714                             -0.003714
      14     H        3          1.013504                             -0.013504
      15     O        4          6.347674                             -0.347674
      16     C        2          3.739318                              0.260682
      17     H        3          0.996424                              0.003576
      18     H        3          1.004793                             -0.004793
      19     H        3          0.998326                              0.001674
      20     C        2          4.062255                             -0.062255
      21     C        2          3.781758                              0.218242
      22     N        1          5.283591                             -0.283591
      23     C        2          3.677131                              0.322869
      24     C        2          3.949393                              0.050607
      25     H        3          0.992229                              0.007771
      26     H        3          0.967988                              0.032012
      27     H        3          0.997389                              0.002611
      28     H        3          0.982564                              0.017436
      29     H        3          0.861609                              0.138391
      30     O        4          6.488582                             -0.488582
      31     H        3          0.970715                              0.029285
      32     H        3          1.001646                             -0.001646
      33     H        3          0.986177                              0.013823
 # Total charge                             90.000000                 -0.000000

 !-----------------------------------------------------------------------------!

 !-----------------------------------------------------------------------------!
                           Hirshfeld Charges

  #Atom  Element  Kind  Ref Charge     Population                    Net charge
      1       N      1       5.000          5.578                        -0.578
      2       C      2       4.000          4.384                        -0.384
      3       C      2       4.000          4.059                        -0.059
      4       C      2       4.000          4.042                        -0.042
      5       C      2       4.000          4.469                        -0.469
      6       C      2       4.000          3.808                         0.192
      7       C      2       4.000          4.451                        -0.451
      8       C      2       4.000          4.462                        -0.462
      9       C      2       4.000          3.925                         0.075
     10       H      3       1.000          0.474                         0.526
     11       H      3       1.000          0.546                         0.454
     12       H      3       1.000          0.547                         0.453
     13       H      3       1.000          0.548                         0.452
     14       H      3       1.000          0.551                         0.449
     15       O      4       6.000          6.476                        -0.476
     16       C      2       4.000          5.000                        -1.000
     17       H      3       1.000          0.560                         0.440
     18       H      3       1.000          0.562                         0.438
     19       H      3       1.000          0.559                         0.441
     20       C      2       4.000          4.792                        -0.792
     21       C      2       4.000          4.666                        -0.666
     22       N      1       5.000          5.650                        -0.650
     23       C      2       4.000          3.612                         0.388
     24       C      2       4.000          5.247                        -1.247
     25       H      3       1.000          0.561                         0.439
     26       H      3       1.000          0.557                         0.443
     27       H      3       1.000          0.566                         0.434
     28       H      3       1.000          0.557                         0.443
     29       H      3       1.000          0.483                         0.517
     30       O      4       6.000          6.599                        -0.599
     31       H      3       1.000          0.546                         0.454
     32       H      3       1.000          0.557                         0.443
     33       H      3       1.000          0.549                         0.451

  Total Charge                                                            0.056
 !-----------------------------------------------------------------------------!

 ENERGY| Total FORCE_EVAL ( QS ) energy [hartree]           -135.212040558325185

 -------------------------------------------------------------------------------
 -                                                                             -
 -                                DBCSR STATISTICS                             -
 -                                                                             -
 -------------------------------------------------------------------------------
 COUNTER                                    TOTAL       BLAS       SMM       ACC
 flops     6 x     6 x    13              2673216     100.0%      0.0%      0.0%     
 flops     6 x     6 x    32              6580224     100.0%      0.0%      0.0%     
 flops    17 x     6 x    13              7574112     100.0%      0.0%      0.0%     
 flops     6 x    17 x    13              7574112     100.0%      0.0%      0.0%     
 flops    17 x     6 x    32             18643968     100.0%      0.0%      0.0%     
 flops     6 x    17 x    32             18643968     100.0%      0.0%      0.0%     
 flops    17 x    17 x    13             24142482     100.0%      0.0%      0.0%     
 flops    17 x    17 x    32             59427648     100.0%      0.0%      0.0%     
 flops inhomo. stacks                           0       0.0%      0.0%      0.0%
 flops total                       145.259730E+06     100.0%      0.0%      0.0%
 flops max/rank                     10.873170E+06     100.0%      0.0%      0.0%
 matmuls inhomo. stacks                         0       0.0%      0.0%      0.0%
 matmuls total                              23562     100.0%      0.0%      0.0%
 number of processed stacks                  2688     100.0%      0.0%      0.0%
 average stack size                                     8.8       0.0       0.0
 marketing flops                   280.145280E+06
 -------------------------------------------------------------------------------
 # multiplications                             21
 max memory usage/rank              13.905105E+09
 # max total images/rank                        1
 # max 3D layers                                1
 # MPI messages exchanged                    2016
 MPI messages size (bytes):
  total size                        17.463600E+06
  min size                           0.000000E+00
  max size                          25.088000E+03
  average size                       8.662500E+03
 MPI breakdown and total messages size (bytes):
             size <=      128                1008                        0
       128 < size <=     8192                   0                        0
      8192 < size <=    32768                1008                 17463600
     32768 < size <=   131072                   0                        0
    131072 < size <=  4194304                   0                        0
   4194304 < size <= 16777216                   0                        0
  16777216 < size                               0                        0
 -------------------------------------------------------------------------------
 -                                                                             -
 -                      DBCSR MESSAGE PASSING PERFORMANCE                      -
 -                                                                             -
 -------------------------------------------------------------------------------
 ROUTINE             CALLS      AVE VOLUME [Bytes]
 MP_Bcast                9                     12.
 MP_Allreduce          140                     12.
 MP_Alltoall           693                  30522.
 MP_ISend              336                   4250.
 MP_IRecv              336                   1294.
 -------------------------------------------------------------------------------

 -------------------------------------------------------------------------------
 -                                                                             -
 -                                GRID STATISTICS                              -
 -                                                                             -
 -------------------------------------------------------------------------------
 LP    KERNEL             BACKEND                              COUNT     PERCENT
 3     collocate ortho    CPU                                   7480      24.32%
 3     integrate ortho    CPU                                   7140      23.21%
 4     collocate ortho    CPU                                   4620      15.02%
 4     integrate ortho    CPU                                   4410      14.34%
 2     collocate ortho    CPU                                   3586      11.66%
 2     integrate ortho    CPU                                   3423      11.13%
 0     collocate general  CPU                                     66       0.21%
 0     integrate general  CPU                                     33       0.11%
 -------------------------------------------------------------------------------

 -------------------------------------------------------------------------------
 -                                                                             -
 -                          OFFLOAD MEMPOOL STATISTICS                         -
 -                                                                             -
 -------------------------------------------------------------------------------
 Memory consumption                Number of allocations  Used [MiB]  Size [MiB]
 Host                                                  6         483    14205047
 -------------------------------------------------------------------------------

 MEMORY| Estimated peak process memory [MiB]                               10919

 -------------------------------------------------------------------------------
 ----                             MULTIGRID INFO                            ----
 -------------------------------------------------------------------------------
 count for grid        1:         382786          cutoff [a.u.]          500.00
 count for grid        2:         299451          cutoff [a.u.]          166.67
 count for grid        3:         231725          cutoff [a.u.]           55.56
 count for grid        4:         102386          cutoff [a.u.]           18.52
 total gridlevel count  :        1016348

 -------------------------------------------------------------------------------
 -                                                                             -
 -                         MESSAGE PASSING PERFORMANCE                         -
 -                                                                             -
 -------------------------------------------------------------------------------

 ROUTINE             CALLS      AVE VOLUME [Bytes]
 MP_Group                4
 MP_Bcast              164                 250649.
 MP_Allreduce          394                  85754.
 MP_Sync                25
 MP_Alltoall           273              516660789.
 MP_SendRecv           660                4199040.
 MP_ISendRecv          630                4199040.
 MP_Wait              1609
 MP_comm_split          21
 MP_ISend              712               24118902.
 MP_IRecv              712               24125121.
 -------------------------------------------------------------------------------


 -------------------------------------------------------------------------------
 -                                                                             -
 -                           R E F E R E N C E S                               -
 -                                                                             -
 -------------------------------------------------------------------------------
 
 CP2K version 2026.2, the CP2K developers group (2026).
 CP2K is freely available from https://www.cp2k.org/ .
 
 M. Iannuzzi, J. Wilhelm, F. Stein, A. Bussy, H. Elgabarty, D. Golze, A. Hehn, 
 M. Graml, S. Marek, B. Sertcan Gökmen, C. Schran, H. Forbert, R. Z. 
 Khaliullin, A. Kozhevnikov, M. Taillefumier, R. Meli, V. V. Rybkin, M. Brehm, 
 R. Schade, O. Schütt, J. V. Pototschnig, H. Mirhosseini, A. Knüpfer, D. Marx, 
 M. Krack, J. Hutter, T. D. Kühne.
 J. Phys. Chem. B 130, 1237-1310 (2026).
 The CP2K Program Package Made Simple.
 https://doi.org/10.1021/acs.jpcb.5c05851

 T. D. Kühne, M. Iannuzzi, M. Del Ben, V. V. Rybkin, P. Seewald, F. Stein, T. 
 Laino, R. Z. Khaliullin, O. Schütt, F. Schiffmann, D. Golze, J. Wilhelm, S. 
 Chulkov, M. H. Bani-Hashemian, V. Weber, U. Borstnik, M. Taillefumier, A. S. 
 Jakobovits, A. Lazzaro, H. Pabst, T. Müller, R. Schade, M. Guidon, S. 
 Andermatt, N. Holmberg, G. K. Schenter, A. Hehn, A. Bussy, F. Belleflamme, G. 
 Tabacchi, A. Glöß, M. Lass, I. Bethune, C. J. Mundy, C. Plessl, M. Watkins, 
 J. VandeVondele, M. Krack, J. Hutter.
 J. Chem. Phys. 152, 194103 (2020).
 CP2K: An electronic structure and molecular dynamics software package - 
 Quickstep: Efficient and accurate electronic structure calculations.
 https://doi.org/10.1063/5.0007045

 O. Schuett, P. Messmer, J. Hutter, J. VandeVondele.
 Electronic Structure Calculations on Graphics Processing Units, 173-190 (2016).
 GPU-Accelerated Sparse Matrix-Matrix Multiplication for Linear Scaling Density 
 Functional Theory.
 https://doi.org/10.1002/9781118670712.ch8

 U. Borstnik, J. VandeVondele, V. Weber, J. Hutter.
 Parallel Comput. 40, 47-58 (2014).
 Sparse matrix multiplication: The distributed block-compressed sparse row 
 library.
 https://doi.org/10.1016/j.parco.2014.03.012

 J. VandeVondele, J. Hutter.
 J. Chem. Phys. 127, 114105 (2007).
 Gaussian basis sets for accurate calculations on molecular systems in gas and 
 condensed phases.
 https://doi.org/10.1063/1.2770708

 J. VandeVondele, M. Krack, F. Mohamed, M. Parrinello, T. Chassaing, J. Hutter.
 Comput. Phys. Commun. 167, 103-128 (2005).
 QUICKSTEP: Fast and accurate density functional calculations using a mixed 
 Gaussian and plane waves approach.
 https://doi.org/10.1016/j.cpc.2004.12.014

 M. Krack.
 Theor. Chem. Acc. 114, 145-152 (2005).
 Pseudopotentials for H to Kr optimized for gradient-corrected 
 exchange-correlation functionals.
 https://doi.org/10.1007/s00214-005-0655-y

 M. Frigo, S. G. Johnson.
 Proc. IEEE 93, 216-231 (2005).
 The design and implementation of FFTW3.
 https://doi.org/10.1109/JPROC.2004.840301

 C. Hartwigsen, S. Goedecker, J. Hutter.
 Phys. Rev. B 58, 3641-3662 (1998).
 Relativistic separable dual-space Gaussian pseudopotentials from H to Rn.
 https://doi.org/10.1103/PhysRevB.58.3641

 G. Lippert, J. Hutter, M. Parrinello.
 Mol. Phys. 92, 477-487 (1997).
 A hybrid Gaussian and plane wave density functional scheme.
 https://doi.org/10.1080/002689797170220

 S. Goedecker, M. Teter, J. Hutter.
 Phys. Rev. B 54, 1703-1710 (1996).
 Separable dual-space Gaussian pseudopotentials.
 https://doi.org/10.1103/PhysRevB.54.1703


 -------------------------------------------------------------------------------
 -                                                                             -
 -                                T I M I N G                                  -
 -                                                                             -
 -------------------------------------------------------------------------------
 SUBROUTINE                       CALLS  ASD         SELF TIME        TOTAL TIME
                                MAXIMUM       AVERAGE  MAXIMUM  AVERAGE  MAXIMUM
 CP2K                                 1  1.0    0.066    0.074 1171.007 1171.007
 qs_energies                          1  2.0    0.000    0.000 1164.075 1164.077
 scf_env_do_scf                       1  3.0    0.000    0.000 1151.798 1151.799
 scf_env_do_scf_inner_loop           21  4.0    0.001    0.001 1151.798 1151.798
 qs_ks_update_qs_env                 21  5.0    0.000    0.000 1007.563 1007.569
 rebuild_ks_matrix                   21  6.0    0.000    0.000 1007.561 1007.567
 qs_ks_build_kohn_sham_matrix        21  7.0  823.777  823.981 1007.561 1007.567
 fft_wrap_pw1pw2                    216  9.2    0.010    0.018  239.231  239.977
 fft_wrap_pw1pw2_500                 87  9.7    7.559    8.051  212.500  215.934
 fft3d_ps                           216 11.2   83.118   91.051  153.127  161.426
 qs_rho_update_rho_low               22  5.0    0.000    0.000  150.960  150.960
 calculate_rho_elec                  22  6.0    2.120    2.163  150.960  150.960
 density_rs2pw                       22  7.0    0.003    0.003  140.991  141.442
 sum_up_and_integrate                21  8.0    0.000    0.000   89.378   89.386
 integrate_v_rspace                  21  9.0    0.001    0.001   89.378   89.385
 potential_pw2rs                     21 10.0    0.121    0.147   88.907   88.928
 pw_gather_p                        110 10.6   47.953   51.481   47.953   51.481
 pw_poisson_solve                    21  8.0    0.001    0.002   42.955   44.441
 yz_to_x                            110 11.6   25.047   26.207   37.554   42.958
 x_to_yz                            106 12.8   19.890   20.443   32.444   37.123
 mp_alltoall_z22v                   216 13.2   25.061   35.590   25.061   35.590
 pw_poisson_set                      22  8.9    0.003    0.003   26.912   28.398
 fft_wrap_pw1pw2_170                 43 10.5    0.249    0.281   22.338   25.886
 pw_scatter_p                       106 11.8   21.340   25.223   21.340   25.223
 -------------------------------------------------------------------------------

 The number of warnings for this run is : 0
 
 -------------------------------------------------------------------------------
  **** **** ******  **  PROGRAM ENDED AT                 2026-08-13 14:09:07.380
 ***** ** ***  *** **   PROGRAM RAN ON            eb3791e2ef3243b6944400b65b9622
 **    ****   ******    PROGRAM RAN BY                                 <unknown>
 ***** **    ** ** **   PROGRAM PROCESS ID                                  1511
  **** **  *******  **  PROGRAM STOPPED IN                    /tmp/cp2k_xlix4alw
