 DBCSR| CPU Multiplication driver                                           XSMM (U)
 DBCSR| Multrec recursion limit                                              512 (U)
 DBCSR| Multiplication stack size                                           1000 (D)
 DBCSR| Maximum elements for images                                    UNLIMITED (U)
 DBCSR| Multiplicative factor virtual images                                   1 (U)
 DBCSR| Use multiplication densification                                       T (D)
 DBCSR| Multiplication size stacks                                             3 (U)
 DBCSR| Use memory pool for CPU allocation                                     F (U)
 DBCSR| Number of 3D layers                                               SINGLE (U)
 DBCSR| Use MPI memory allocation                                              F (U)
 DBCSR| Use RMA algorithm                                                      F (U)
 DBCSR| Use Communication thread                                               T (U)
 DBCSR| Communication thread load                                             87 (D)
 DBCSR| MPI: My process id                                                     0
 DBCSR| MPI: Number of processes                                               1
 DBCSR| OMP: Current number of threads                                         1
 DBCSR| OMP: Max number of threads                                             1
 DBCSR| Split modifier for TAS multiplication algorithm                  1.0E+00 (U)


  **** **** ******  **  PROGRAM STARTED AT               2026-05-30 15:48:56.655
 ***** ** ***  *** **   PROGRAM STARTED ON                            spark-c86c
 **    ****   ******    PROGRAM STARTED BY                              kuehne88
 ***** **    ** ** **   PROGRAM PROCESS ID                                170068
  **** **  *******  **  PROGRAM STARTED IN /home/kuehne88/molecular-skala-final-
                                           20260530-prhead/oh-skala-restart-fd/r
                                           uns/plus_0.001

 CP2K| version string:                 CP2K version 2026.1 (Development Version)
 CP2K| source code revision number:                                   362771334d
 CP2K| cp2kflags: omp libint fftw3 libxc gauxc gauxc_mpi gauxc_onedft gauxc_host
 CP2K|             gauxc_device gauxc_cuda parallel scalapack xsmm spglib libtor
 CP2K|            rch
 CP2K| is freely available from                            https://www.cp2k.org/
 CP2K| Program compiled at                                   2026-05-29 22:13:32
 CP2K| Program compiled on                                            spark-c86c
 CP2K| Program compiled for                                              aarch64
 CP2K| Data directory path        /home/kuehne88/cp2k-periodic-skala-verify/data
 CP2K| Input file name                                                 input.inp

 GLOBAL| Force Environment number                                              1
 GLOBAL| Basis set file name                                    BASIS_MOLOPT_UZH
 GLOBAL| Potential file name                                       POTENTIAL_UZH
 GLOBAL| MM Potential file name                                     MM_POTENTIAL
 GLOBAL| Coordinate file name                                      __STD_INPUT__
 GLOBAL| Method name                                                        CP2K
 GLOBAL| Project name                                               OH_GPW_skala
 GLOBAL| Run type                                                         ENERGY
 GLOBAL| FFT library                                                       FFTW3
 GLOBAL| Diagonalization library                                       ScaLAPACK
 GLOBAL| Cholesky decomposition library                                ScaLAPACK
 GLOBAL| DGEMM library                                                      BLAS
 GLOBAL| Direct generalized diagonalization requested                          F
 GLOBAL| Orthonormality check for eigenvectors                          DISABLED
 GLOBAL| Matrix multiplication library                                 ScaLAPACK
 GLOBAL| All-to-all communication in single precision                          F
 GLOBAL| FFTs using library dependent lengths                                  F
 GLOBAL| Grid backend                                                       AUTO
 GLOBAL| Global print level                                                  LOW
 GLOBAL| MPI I/O enabled                                                       T
 GLOBAL| Total number of message passing processes                             1
 GLOBAL| Number of distributed systems (nodes)                                 1
 GLOBAL| Number of threads for this process                                    1
 GLOBAL| This output is from process                                           0
 GLOBAL| OpenMP stack size per thread (OMP_STACKSIZE)                       512M
 GLOBAL| CPU model name                                                  UNKNOWN
 GLOBAL| CPUID                                                              2200
 GLOBAL| Compiled for CPUID                                                 2000

 *** HINT in environment.F:970 :: The compiler target flags (arm_arch64)   ***
 *** used to build this binary cannot exploit all extensions of this CPU   ***
 *** model (arm_sve256). Consider compiler target flags as part of FCFLAGS ***
 *** and CFLAGS (ARCH file).                                               ***


 MEMORY| system memory details [Kb]
 MEMORY|                        rank 0           min           max       average
 MEMORY| MemTotal            125508532     125508532     125508532     125508532
 MEMORY| MemFree              54124600      54124600      54124600      54124600
 MEMORY| Buffers               1409560       1409560       1409560       1409560
 MEMORY| Cached               64013148      64013148      64013148      64013148
 MEMORY| Slab                  3518644       3518644       3518644       3518644
 MEMORY| SReclaimable          2662984       2662984       2662984       2662984
 MEMORY| MemLikelyFree       122210292     122210292     122210292     122210292


 GENERATE|  Preliminary Number of Bonds generated:                             0
 GENERATE|  Achieved consistency in connectivity generation.

 *******************************************************************************
 *******************************************************************************
 **                                                                           **
 **     #####                         ##              ##                      **
 **    ##   ##            ##          ##              ##                      **
 **   ##     ##                       ##            ######                    **
 **   ##     ##  ##   ##  ##   #####  ##  ##   ####   ##    #####    #####    **
 **   ##     ##  ##   ##  ##  ##      ## ##   ##      ##   ##   ##  ##   ##   **
 **   ##  ## ##  ##   ##  ##  ##      ####     ###    ##   ######   ######    **
 **    ##  ###   ##   ##  ##  ##      ## ##      ##   ##   ##       ##        **
 **     #######   #####   ##   #####  ##  ##  ####    ##    #####   ##        **
 **           ##                                                    ##        **
 **                                                                           **
 **                                                ... make the atoms dance   **
 **                                                                           **
 **            Copyright (C) by CP2K developers group (2000-2026)             **
 **                      J. Chem. Phys. 152, 194103 (2020)                    **
 **                                                                           **
 *******************************************************************************


 TOTAL NUMBERS AND MAXIMUM NUMBERS

  Total number of            - Atomic kinds:                                   2
                             - Atoms:                                          2
                             - Shell sets:                                     2
                             - Shells:                                        15
                             - Primitive Cartesian functions:                 10
                             - Cartesian basis functions:                     49
                             - Spherical basis functions:                     43

  Maximum angular momentum of- Orbital basis functions:                        3
                             - Local part of the GTH pseudopotential:          2
                             - Non-local part of the GTH pseudopotential:      0


 SCF PARAMETERS         Density guess:                                   RESTART
                        --------------------------------------------------------
                        max_scf:                                             150
                        max_scf_history:                                       0
                        max_diis:                                              4
                        --------------------------------------------------------
                        eps_scf:                                        1.00E-07
                        eps_scf_history:                                0.00E+00
                        eps_diis:                                       1.00E-01
                        eps_eigval:                                     1.00E-05
                        --------------------------------------------------------
                        level_shift [a.u.]:                             0.000000
                        --------------------------------------------------------
                        Mixing method:                           DIRECT_P_MIXING
                        --------------------------------------------------------
                        No outer SCF

 Extrapolation method: initial_guess

 Spin 1

 Number of electrons:                                                          4
 Number of occupied orbitals:                                                  4
 Number of molecular orbitals:                                                 4

 Spin 2

 Number of electrons:                                                          3
 Number of occupied orbitals:                                                  3
 Number of molecular orbitals:                                                 3

 Number of orbital functions:                                                 43
 Number of independent orbital functions:                                     43


 SCF WAVEFUNCTION OPTIMIZATION

  Step     Update method      Time    Convergence         Total energy    Change
  ------------------------------------------------------------------------------
     1 P_Mix/Diag. 0.40E+00    3.3     0.00045377       -16.5470044310 -1.65E+01
     2 P_Mix/Diag. 0.40E+00    2.4     0.00026204       -16.5470045468 -1.16E-07
     3 DIIS/Diag.  0.46E-04    2.3     0.00033590       -16.5470046304 -8.36E-08
     4 DIIS/Diag.  0.74E-04    2.3     0.00040868       -16.5470047911 -1.61E-07
     5 DIIS/Diag.  0.13E-03    2.3     0.00034437       -16.5470047444  4.68E-08
     6 DIIS/Diag.  0.97E-04    2.3     0.00011586       -16.5470047844 -4.00E-08
     7 DIIS/Diag.  0.81E-04    2.3     0.00057225       -16.5470047883 -3.89E-09
     8 DIIS/Diag.  0.11E-03    2.3     0.00019035       -16.5470047892 -9.03E-10
     9 DIIS/Diag.  0.18E-03    2.3     0.00044570       -16.5470047554  3.38E-08
    10 DIIS/Diag.  0.12E-04    2.3     0.00001050       -16.5470048020 -4.66E-08
    11 DIIS/Diag.  0.68E-05    2.3     0.00001880       -16.5470048051 -3.12E-09
    12 DIIS/Diag.  0.39E-06    2.3     0.00000054       -16.5470048068 -1.63E-09
    13 DIIS/Diag.  0.27E-06    2.3     0.00000077       -16.5470048062  6.20E-10
    14 DIIS/Diag.  0.40E-07    2.3     0.00000005       -16.5470048048  1.36E-09

  *** SCF run converged in    14 steps ***


  Electronic density on regular grids:         -7.0000000000        0.0000000000
  Core density on regular grids:                6.9999999998       -0.0000000002
  Total charge density on r-space grids:       -0.0000000002
  Total charge density g-space grids:          -0.0000000002

  Overlap energy of the core charge distribution:               0.00000002135798
  Self energy of the core charge distribution:                -42.94797059739999
  Core Hamiltonian energy:                                     12.20772388851590
  Hartree energy:                                              18.01124047153634
  Exchange-correlation energy:                                 -3.81799858880458

  Total energy:                                               -16.54700480479435

  Integrated spin density:                                          1.0000000000
  Integrated absolute spin density:                                 1.1004507468
  Ideal and single determinant S**2 :                    0.750000       0.755698

 ENERGY| Total FORCE_EVAL ( QS ) energy [hartree]            -16.547004804794351

 -------------------------------------------------------------------------------
 -                                                                             -
 -                                DBCSR STATISTICS                             -
 -                                                                             -
 -------------------------------------------------------------------------------
 COUNTER                                    TOTAL       BLAS       SMM       ACC
 flops    14 x     4 x    14                 1568       0.0%    100.0%      0.0%     
 flops    14 x     3 x    14                 2352       0.0%    100.0%      0.0%     
 flops    29 x     4 x    14                 3248       0.0%    100.0%      0.0%     
 flops    14 x     4 x    29                 3248       0.0%    100.0%      0.0%     
 flops    29 x     3 x    14                 4872       0.0%    100.0%      0.0%     
 flops    14 x     3 x    29                 4872       0.0%    100.0%      0.0%     
 flops    29 x     4 x    29                 6728       0.0%    100.0%      0.0%     
 flops    29 x     3 x    29                10092       0.0%    100.0%      0.0%     
 flops    14 x    14 x     3                17640       0.0%    100.0%      0.0%     
 flops    14 x    14 x     4                23520       0.0%    100.0%      0.0%     
 flops    14 x    29 x     3                36540       0.0%    100.0%      0.0%     
 flops    14 x    29 x     4                48720       0.0%    100.0%      0.0%     
 flops    29 x    29 x     3                75690       0.0%    100.0%      0.0%     
 flops    29 x    29 x     4               100920       0.0%    100.0%      0.0%     
 flops inhomo. stacks                           0       0.0%      0.0%      0.0%
 flops total                       340.010000E+03       0.0%    100.0%      0.0%
 flops max/rank                    340.010000E+03       0.0%    100.0%      0.0%
 matmuls inhomo. stacks                         0       0.0%      0.0%      0.0%
 matmuls total                                102       0.0%    100.0%      0.0%
 number of processed stacks                   102       0.0%    100.0%      0.0%
 average stack size                                     0.0       1.0       0.0
 marketing flops                   425.270000E+03
 -------------------------------------------------------------------------------
 # multiplications                             33
 max memory usage/rank              35.237179E+09
 # max total images/rank                        1
 # max 3D layers                                1
 # MPI messages exchanged                       0
 -------------------------------------------------------------------------------
 -                                                                             -
 -                      DBCSR MESSAGE PASSING PERFORMANCE                      -
 -                                                                             -
 -------------------------------------------------------------------------------
 ROUTINE             CALLS      AVE VOLUME [Bytes]
 MP_Bcast               15                     12.
 MP_Allreduce          206                     12.
 MP_Alltoall           993                   6831.
 MP_ISend              132                     42.
 MP_IRecv              132                     42.
 -------------------------------------------------------------------------------

 -------------------------------------------------------------------------------
 -                                                                             -
 -                                GRID STATISTICS                              -
 -                                                                             -
 -------------------------------------------------------------------------------
 LP    KERNEL             BACKEND                              COUNT     PERCENT
 4     collocate ortho    CPU                                    750      17.23%
 5     collocate ortho    CPU                                    750      17.23%
 6     collocate ortho    CPU                                    750      17.23%
 4     integrate ortho    CPU                                    700      16.08%
 5     integrate ortho    CPU                                    700      16.08%
 6     integrate ortho    CPU                                    700      16.08%
 0     collocate general  CPU                                      2       0.05%
 -------------------------------------------------------------------------------

 -------------------------------------------------------------------------------
 -                                                                             -
 -                          OFFLOAD MEMPOOL STATISTICS                         -
 -                                                                             -
 -------------------------------------------------------------------------------
 Memory consumption                Number of allocations  Used [MiB]  Size [MiB]
 Device                                                6          56          56
 Host                                                  6          56          56
 -------------------------------------------------------------------------------

 MEMORY| Estimated peak process memory [MiB]                                4052

 -------------------------------------------------------------------------------
 -                                                                             -
 -                         MESSAGE PASSING PERFORMANCE                         -
 -                                                                             -
 -------------------------------------------------------------------------------

 ROUTINE             CALLS      AVE VOLUME [Bytes]
 MP_Group                5
 MP_Bcast               66                    201.
 MP_Allreduce          362                   1151.
 MP_Sync                32
 MP_comm_split          28
 -------------------------------------------------------------------------------


 -------------------------------------------------------------------------------
 -                                                                             -
 -                           R E F E R E N C E S                               -
 -                                                                             -
 -------------------------------------------------------------------------------
 
 CP2K version 2026.1 (Development Version), the CP2K developers group (2026).
 CP2K is freely available from https://www.cp2k.org/ .
 
 M. Iannuzzi, J. Wilhelm, F. Stein, A. Bussy, H. Elgabarty, D. Golze, A. Hehn, 
 M. Graml, S. Marek, B. Sertcan Gökmen, C. Schran, H. Forbert, R. Z. 
 Khaliullin, A. Kozhevnikov, M. Taillefumier, R. Meli, V. V. Rybkin, M. Brehm, 
 R. Schade, O. Schütt, J. V. Pototschnig, H. Mirhosseini, A. Knüpfer, D. Marx, 
 M. Krack, J. Hutter, T. D. Kühne.
 J. Phys. Chem. B 130, 1237-1310 (2026).
 The CP2K Program Package Made Simple.
 https://doi.org/10.1021/acs.jpcb.5c05851

 T. D. Kühne, M. Iannuzzi, M. Del Ben, V. V. Rybkin, P. Seewald, F. Stein, T. 
 Laino, R. Z. Khaliullin, O. Schütt, F. Schiffmann, D. Golze, J. Wilhelm, S. 
 Chulkov, M. H. Bani-Hashemian, V. Weber, U. Borstnik, M. Taillefumier, A. S. 
 Jakobovits, A. Lazzaro, H. Pabst, T. Müller, R. Schade, M. Guidon, S. 
 Andermatt, N. Holmberg, G. K. Schenter, A. Hehn, A. Bussy, F. Belleflamme, G. 
 Tabacchi, A. Glöß, M. Lass, I. Bethune, C. J. Mundy, C. Plessl, M. Watkins, 
 J. VandeVondele, M. Krack, J. Hutter.
 J. Chem. Phys. 152, 194103 (2020).
 CP2K: An electronic structure and molecular dynamics software package - 
 Quickstep: Efficient and accurate electronic structure calculations.
 https://doi.org/10.1063/5.0007045

 O. Schuett, P. Messmer, J. Hutter, J. VandeVondele.
 Electronic Structure Calculations on Graphics Processing Units, 173-190 (2016).
 GPU-Accelerated Sparse Matrix-Matrix Multiplication for Linear Scaling Density 
 Functional Theory.
 https://doi.org/10.1002/9781118670712.ch8

 A. Heinecke, G. Henry, M. Hutchinson, H. Pabst.
 Proceedings of Intl. Supercomputing Conference, 981-991 (2016).
 LIBXSMM: Accelerating Small Matrix Multiplications by Runtime Code Generation.
 https://doi.org/10.1109/SC.2016.83

 U. Borstnik, J. VandeVondele, V. Weber, J. Hutter.
 Parallel Comput. 40, 47-58 (2014).
 Sparse matrix multiplication: The distributed block-compressed sparse row 
 library.
 https://doi.org/10.1016/j.parco.2014.03.012

 J. VandeVondele, J. Hutter.
 J. Chem. Phys. 127, 114105 (2007).
 Gaussian basis sets for accurate calculations on molecular systems in gas and 
 condensed phases.
 https://doi.org/10.1063/1.2770708

 J. VandeVondele, M. Krack, F. Mohamed, M. Parrinello, T. Chassaing, J. Hutter.
 Comput. Phys. Commun. 167, 103-128 (2005).
 QUICKSTEP: Fast and accurate density functional calculations using a mixed 
 Gaussian and plane waves approach.
 https://doi.org/10.1016/j.cpc.2004.12.014

 M. Krack.
 Theor. Chem. Acc. 114, 145-152 (2005).
 Pseudopotentials for H to Kr optimized for gradient-corrected 
 exchange-correlation functionals.
 https://doi.org/10.1007/s00214-005-0655-y

 M. Frigo, S. G. Johnson.
 Proc. IEEE 93, 216-231 (2005).
 The design and implementation of FFTW3.
 https://doi.org/10.1109/JPROC.2004.840301

 G. J. Martyna, M. E. Tuckerman.
 J. Chem. Phys. 110, 2810-2821 (1999).
 A reciprocal space based method for treating long range interactions in ab 
 initio and force-field-based calculations in clusters.
 https://doi.org/10.1063/1.477923

 C. Hartwigsen, S. Goedecker, J. Hutter.
 Phys. Rev. B 58, 3641-3662 (1998).
 Relativistic separable dual-space Gaussian pseudopotentials from H to Rn.
 https://doi.org/10.1103/PhysRevB.58.3641

 G. Lippert, J. Hutter, M. Parrinello.
 Mol. Phys. 92, 477-487 (1997).
 A hybrid Gaussian and plane wave density functional scheme.
 https://doi.org/10.1080/002689797170220

 S. Goedecker, M. Teter, J. Hutter.
 Phys. Rev. B 54, 1703-1710 (1996).
 Separable dual-space Gaussian pseudopotentials.
 https://doi.org/10.1103/PhysRevB.54.1703


 -------------------------------------------------------------------------------
 -                                                                             -
 -                                T I M I N G                                  -
 -                                                                             -
 -------------------------------------------------------------------------------
 SUBROUTINE                       CALLS  ASD         SELF TIME        TOTAL TIME
                                MAXIMUM       AVERAGE  MAXIMUM  AVERAGE  MAXIMUM
 CP2K                                 1  1.0    0.137    0.137   38.252   38.252
 qs_energies                          1  2.0    0.000    0.000   34.593   34.593
 scf_env_do_scf                       1  3.0    0.000    0.000   33.649   33.649
 scf_env_do_scf_inner_loop           14  4.0    0.001    0.001   33.649   33.649
 qs_ks_update_qs_env                 14  5.0    0.000    0.000   25.631   25.631
 rebuild_ks_matrix                   14  6.0    0.000    0.000   25.631   25.631
 qs_ks_build_kohn_sham_matrix        14  7.0   17.002   17.002   25.631   25.631
 fft_wrap_pw1pw2                    278  9.2    0.002    0.002   14.403   14.403
 fft_wrap_pw1pw2_300                103  9.8    2.140    2.140   12.700   12.700
 qs_rho_update_rho_low               15  5.0    0.000    0.000    8.685    8.685
 calculate_rho_elec                  30  6.0    0.357    0.357    8.685    8.685
 density_rs2pw                       30  7.0    0.001    0.001    8.178    8.178
 fft3d_s                            279 11.2    7.117    7.117    7.121    7.121
 sum_up_and_integrate                14  8.0    0.000    0.000    4.525    4.525
 integrate_v_rspace                  28  9.0    0.001    0.001    4.525    4.525
 potential_pw2rs                     28 10.0    0.019    0.019    4.395    4.395
 qs_init_subsys                       1  2.0    0.000    0.000    3.513    3.513
 qs_env_setup                         1  3.0    0.000    0.000    3.512    3.512
 qs_env_rebuild_pw_env                2  3.5    0.000    0.000    3.512    3.512
 pw_env_rebuild                       1  5.0    0.000    0.000    3.512    3.512
 pw_grid_setup                        5  6.0    0.000    0.000    3.511    3.511
 pw_grid_setup_internal               5  7.0    0.036    0.036    3.511    3.511
 pw_grid_sort                         5  8.0    2.607    2.607    3.142    3.142
 pw_gather_s                        150 10.6    2.950    2.950    2.950    2.950
 pw_poisson_solve                    14  8.0    0.000    0.000    2.338    2.338
 pw_scatter_s                       128 12.0    1.755    1.755    1.755    1.755
 pw_poisson_rebuild                  14  9.0    0.019    0.019    1.052    1.052
 MTin_create_screen_fn                1 10.0    0.050    0.050    1.033    1.033
 fft_wrap_pw1pw2_100                 58 10.4    0.022    0.022    0.841    0.841
 -------------------------------------------------------------------------------

 The number of warnings for this run is : 0
 
 -------------------------------------------------------------------------------
  **** **** ******  **  PROGRAM ENDED AT                 2026-05-30 15:49:35.302
 ***** ** ***  *** **   PROGRAM RAN ON                                spark-c86c
 **    ****   ******    PROGRAM RAN BY                                  kuehne88
 ***** **    ** ** **   PROGRAM PROCESS ID                                170068
  **** **  *******  **  PROGRAM STOPPED IN /home/kuehne88/molecular-skala-final-
                                           20260530-prhead/oh-skala-restart-fd/r
                                           uns/plus_0.001
